95
comp15_0_QRCR_v2.log	Energy: -1372012.0170422
N          1.44739       -1.69419       -1.04374
C          2.48502       -2.00220       -0.24963
C          3.44138       -2.94231       -0.64369
C          3.30295       -3.56939       -1.87459
C          2.20514       -3.25885       -2.67329
C          1.29726       -2.31064       -2.21592
H          0.40348       -2.03141       -2.77843
H          2.05099       -3.73736       -3.64159
H          4.29642       -3.16750       -0.00775
C          2.52280       -1.31527        1.05612
N          1.56695       -0.39016        1.28032
C          1.50039        0.23745        2.46044
C          2.40019       -0.02906        3.48395
C          3.39799       -0.97654        3.27091
C          3.45585       -1.62838        2.04752
H          4.22372       -2.37730        1.86123
H          2.31355        0.50853        4.42912
H          0.69913        0.97456        2.55633
Ir         0.30942        0.11415       -0.37697
H         -0.38224        0.61995       -1.72862
B         -1.03448       -1.07021        0.82620
O         -1.19648       -2.43796        0.78126
C         -1.48758       -2.90753        2.10473
C         -2.47973       -4.05209        2.01260
H         -3.38577       -3.75769        1.46800
H         -2.77065       -4.40319        3.01420
H         -2.01993       -4.89360        1.47438
C         -0.17042       -3.40496        2.69125
H         -0.30701       -3.85486        3.68516
H          0.24916       -4.16599        2.01755
H          0.56202       -2.58986        2.77534
C         -2.03094       -1.61492        2.81703
O         -1.45536       -0.56478        2.03293
C         -3.54358       -1.46330        2.73088
H         -3.89108       -1.57255        1.69660
H         -4.06698       -2.19597        3.36214
H         -3.81401       -0.45298        3.07012
C         -1.57736       -1.44511        4.25675
H         -0.48351       -1.39841        4.33345
H         -1.98329       -0.50466        4.65680
H         -1.94126       -2.27110        4.88648
B         -0.51355        1.85277        0.28587
O         -1.09056        2.80792       -0.53688
C         -1.75094        3.77127        0.28860
C         -1.70646        5.12569       -0.39287
H         -0.68001        5.40914       -0.65956
H         -2.29949        5.09110       -1.31847
H         -2.13135        5.90760        0.25515
C         -3.19347        3.30489        0.45656
H         -3.79437        4.02415        1.03237
H         -3.64127        3.18820       -0.54034
H         -3.23018        2.32161        0.94674
C         -0.92767        3.67453        1.61505
O         -0.50979        2.30541        1.59767
C         -1.72256        3.92985        2.88143
H         -2.53410        3.19961        2.99232
H         -1.06399        3.84084        3.75823
H         -2.15209        4.94337        2.88037
C          0.33361        4.53138        1.59172
H          0.90817        4.35762        0.66998
H          0.10559        5.60438        1.67079
H          0.97032        4.24994        2.44327
B         -1.54340       -0.43045       -1.17408
O         -1.63161       -1.40713       -2.16688
C         -2.82890       -1.16570       -2.91020
C         -2.46917       -0.23690       -4.06679
H         -2.10062        0.73136       -3.69696
H         -1.66712       -0.70077       -4.65941
H         -3.32677       -0.05468       -4.73046
C         -3.35686       -2.48599       -3.43860
H         -2.65623       -2.89345       -4.18234
H         -4.33300       -2.35269       -3.92934
H         -3.46067       -3.22440       -2.63369
C         -3.73664       -0.46871       -1.84103
O         -2.77478        0.18227       -1.00490
C         -4.68851        0.57670       -2.39278
H         -5.38953        0.13076       -3.11488
H         -5.27527        1.01001       -1.56968
H         -4.14435        1.39365       -2.88328
C         -4.49508       -1.47233       -0.98151
H         -3.80924       -2.23156       -0.57873
H         -4.95624       -0.93726       -0.13935
H         -5.29225       -1.97588       -1.54699
H          4.04764       -4.29633       -2.20592
H          4.12631       -1.20860        4.05093
C          1.97120        1.23122       -1.03445
C          1.91081        2.43938       -1.76244
N          3.19226        0.73333       -0.77302
C          3.09762        3.03625       -2.16643
H          0.94493        2.89617       -1.98705
C          4.26417        1.38609       -1.20735
N          4.29891        2.51865       -1.89608
H          3.09068        3.97470       -2.73357
C          5.53292        0.75892       -0.87945
N          6.51899        0.22037       -0.59846
