94
comp69_1_QRCR_v2.log	Energy: -1553127.9330636
N          0.18913       -2.33496       -1.14266
C          0.46169       -3.29196       -0.24070
C          0.24775       -4.64192       -0.53312
C         -0.23325       -4.99535       -1.78695
C         -0.48536       -3.99318       -2.71922
C         -0.26467       -2.67174       -2.34944
H         -0.48135       -1.84277       -3.02285
H         -0.85614       -4.22345       -3.71907
H          0.44989       -5.41144        0.21092
C          1.03479       -2.82896        1.03763
N          1.09979       -1.49569        1.22773
C          1.67357       -1.00926        2.33216
C          2.20887       -1.83214        3.31456
C          2.14001       -3.21035        3.14318
C          1.54720       -3.71109        1.99205
H          1.50298       -4.78611        1.82381
H          2.66803       -1.38607        4.19769
H          1.66354        0.07856        2.42353
Ir         0.38589       -0.23125       -0.36192
H          0.24632        0.66266       -1.67573
B         -1.47375       -0.41095        0.70315
O         -2.32623        0.52077        1.25350
C         -3.24042       -0.13790        2.14204
C         -3.44107        0.74639        3.35960
H         -2.48139        1.02567        3.81232
H         -4.06169        0.24334        4.11686
H         -3.95257        1.67233        3.05879
C         -4.56267       -0.33130        1.41199
H         -5.30928       -0.81827        2.05562
H         -4.95833        0.64903        1.11477
H         -4.42710       -0.93992        0.50609
C         -2.50943       -1.49353        2.42188
O         -1.74392       -1.66757        1.22438
C         -1.52156       -1.39151        3.57973
H         -0.87879       -0.50636        3.46754
H         -2.03417       -1.33351        4.55078
H         -0.87876       -2.28404        3.58010
C         -3.41327       -2.69728        2.60523
H         -4.02292       -2.88153        1.71161
H         -2.79805       -3.59145        2.78411
H         -4.08052       -2.56395        3.47027
B          0.57586        1.57698        0.54590
O          0.77471        2.79129       -0.07374
C          0.56513        3.82706        0.89069
C          1.44989        5.01015        0.54781
H          2.50140        4.71255        0.44375
H          1.12648        5.44353       -0.40958
H          1.37792        5.79270        1.31876
C         -0.90775        4.21741        0.81510
H         -1.14324        5.05938        1.48280
H         -1.13546        4.50954       -0.21938
H         -1.55148        3.36028        1.06049
C          0.92641        3.09951        2.22814
O          0.56436        1.74456        1.92933
C          0.13713        3.55922        3.43919
H         -0.93877        3.39920        3.29337
H          0.45009        2.98788        4.32604
H          0.31333        4.62644        3.64297
C          2.42200        3.11461        2.52404
H          2.99932        2.77061        1.65322
H          2.77532        4.11635        2.80816
H          2.62972        2.43158        3.36172
B         -1.31124        0.49906       -1.33754
O         -2.05395       -0.29319       -2.21209
C         -2.74738        0.57786       -3.11397
C         -1.86844        0.73519       -4.35135
H         -0.89692        1.18243       -4.09450
H         -1.68164       -0.25784       -4.78692
H         -2.34642        1.35912       -5.12007
C         -4.07197       -0.05888       -3.49006
H         -3.89053       -0.98516       -4.05498
H         -4.66736        0.61613       -4.12327
H         -4.65933       -0.31577       -2.59953
C         -2.86165        1.90333       -2.27764
O         -1.74015        1.80890       -1.40266
C         -2.73203        3.17967       -3.09138
H         -3.52555        3.24759       -3.85127
H         -2.82490        4.04818       -2.42322
H         -1.75559        3.24328       -3.58779
C         -4.11933        1.95932       -1.42287
H         -4.24017        1.03347       -0.85078
H         -4.01833        2.78518       -0.70435
H         -5.02094        2.12773       -2.02980
H         -0.40747       -6.04506       -2.03298
H          2.55091       -3.89111        3.89177
C          2.43219       -0.12756       -0.88848
S          3.37561       -1.57232       -1.12142
C          3.24852        0.96101       -1.10215
C          4.82287       -0.73611       -1.47796
C          4.60313        0.62596       -1.43414
H          2.88750        1.98782       -1.02996
H          5.75591       -1.24868       -1.70629
C          5.62379        1.58931       -1.68314
N          6.44860        2.38262       -1.87890
