96
comp44_4_QRCR.log	Energy: -1317374.9791412
N         -2.18518        0.95458       -1.07256
C         -3.17023        0.93570       -0.16041
C         -4.30890        1.73513       -0.30485
C         -4.42934        2.54334       -1.42764
C         -3.41284        2.52925       -2.37856
C         -2.30335        1.72154       -2.15567
H         -1.46035        1.69752       -2.84551
H         -3.46810        3.13946       -3.28132
H         -5.09723        1.72414        0.44701
C         -2.98945       -0.00944        0.95616
N         -1.84064       -0.71686        0.96373
C         -1.62366       -1.62795        1.92230
C         -2.55486       -1.87919        2.92199
C         -3.74586       -1.15764        2.93235
C         -3.96215       -0.21377        1.93882
H         -4.88827        0.35878        1.92064
H         -2.33724       -2.63453        3.67841
H         -0.66397       -2.15077        1.86515
Ir        -0.37773       -0.30056       -0.56235
H          0.59431       -0.14093       -1.81919
B          0.24773        0.96388        1.05129
O         -0.28756        2.18877        1.40367
C         -0.12473        2.38705        2.81390
C          0.21910        3.84406        3.06643
H          1.10881        4.15232        2.50334
H          0.40010        4.02752        4.13636
H         -0.62030        4.47878        2.74681
C         -1.46186        2.05199        3.46442
H         -1.45486        2.25484        4.54516
H         -2.24474        2.66798        2.99835
H         -1.72607        0.99715        3.31180
C          1.01411        1.36382        3.18179
O          0.94417        0.42192        2.10995
C          2.40965        1.97239        3.15880
H          2.59522        2.48439        2.20754
H          2.56386        2.68166        3.98495
H          3.14892        1.16386        3.25121
C          0.80057        0.61733        4.48813
H         -0.13279        0.04011        4.47520
H          1.62882       -0.08997        4.63992
H          0.77910        1.30932        5.34370
B          1.12752       -1.55387       -0.03293
O          2.31267       -1.71414       -0.72704
C          3.21153       -2.46359        0.09052
C          4.12543       -3.28542       -0.79817
H          3.55054       -3.90476       -1.49881
H          4.76590       -2.61262       -1.38714
H          4.77672       -3.93980       -0.19836
C          4.01649       -1.45307        0.90326
H          4.79138       -1.93619        1.51699
H          4.49865       -0.75299        0.20637
H          3.34930       -0.86489        1.55008
C          2.22667       -3.29919        0.97349
O          1.09848       -2.42215        1.05264
C          2.72173       -3.58963        2.37827
H          2.89525       -2.66068        2.93650
H          1.96956       -4.17950        2.92341
H          3.65631       -4.17094        2.35489
C          1.75806       -4.58027        0.29296
H          1.38800       -4.37265       -0.72154
H          2.55735       -5.33423        0.24022
H          0.92211       -5.00207        0.87018
B          0.93709        1.25670       -0.98447
O          0.51567        2.31554       -1.79182
C          1.67331        2.89128       -2.39747
C          1.90724        2.16664       -3.72072
H          2.10365        1.09688       -3.55686
H          1.00166        2.25281       -4.33915
H          2.74964        2.59567       -4.28248
C          1.41692        4.36615       -2.64510
H          0.62489        4.48068       -3.39997
H          2.32114        4.86742       -3.02283
H          1.08512        4.87208       -1.72967
C          2.78260        2.57692       -1.33696
O          2.29772        1.37316       -0.73755
C          4.16146        2.30894       -1.91305
H          4.53733        3.18416       -2.46513
H          4.86417        2.09236       -1.09511
H          4.15176        1.44069       -2.58376
C          2.86470        3.64467       -0.25306
H          1.87464        3.82296        0.19070
H          3.54410        3.29586        0.53727
H          3.25821        4.59406       -0.64378
H         -5.31149        3.17354       -1.55982
H         -4.49967       -1.32832        3.70387
C         -1.06193       -1.98073       -1.66782
C         -2.28400       -2.60708       -1.74592
C         -0.22048       -2.76059       -2.54925
O         -2.23563       -3.68498       -2.58799
C         -3.62470       -2.38457       -1.13803
C         -0.98013       -3.76364       -3.06796
H          0.83385       -2.57845       -2.75173
H         -4.35846       -3.03221       -1.63756
H         -3.96056       -1.34462       -1.25843
H         -3.65117       -2.62331       -0.06160
H         -0.78205       -4.57422       -3.76574
