103
comp140_8_QRCF.log	Energy: -1401178.3820236
N         -0.27037        2.16139        1.49331
C         -0.32083        3.30829        0.79758
C         -0.51409        4.53803        1.43697
C         -0.64158        4.56851        2.81900
C         -0.57758        3.37105        3.52652
C         -0.39519        2.18768        2.82011
H         -0.37450        1.21471        3.31184
H         -0.67053        3.34558        4.61335
H         -0.55735        5.46405        0.86452
C         -0.14595        3.18253       -0.66106
N          0.09757        1.94170       -1.13289
C          0.28882        1.74999       -2.44562
C          0.23180        2.79627       -3.35706
C         -0.02737        4.08308       -2.89199
C         -0.21383        4.27628       -1.53070
H         -0.41676        5.27328       -1.14224
H          0.39226        2.59221       -4.41662
H          0.49859        0.71894       -2.74390
Ir         0.16819        0.31712        0.27369
H          0.46637       -0.80935        1.36602
B         -1.79075        0.09464       -0.55160
O         -2.95200        0.74904       -0.18342
C         -3.79789        0.87812       -1.33296
C         -5.24391        0.71078       -0.90363
H         -5.40121       -0.24086       -0.38076
H         -5.91969        0.75063       -1.77146
H         -5.51955        1.52438       -0.21683
C         -3.57748        2.28355       -1.88302
H         -4.24370        2.50418       -2.72964
H         -3.77815        3.00957       -1.08179
H         -2.53838        2.42294       -2.21238
C         -3.25676       -0.24783       -2.28640
O         -1.91369       -0.41797       -1.82749
C         -3.96427       -1.58445       -2.10828
H         -3.96590       -1.88344       -1.05307
H         -4.99972       -1.55705       -2.47779
H         -3.41334       -2.35248       -2.66982
C         -3.21980        0.12839       -3.75751
H         -2.58518        1.00659       -3.93327
H         -2.80279       -0.70862       -4.33625
H         -4.23051        0.33902       -4.13913
B          0.75541       -1.21629       -0.91954
O          0.92887       -2.52366       -0.51177
C          1.16530       -3.33231       -1.66333
C          2.09526       -4.46952       -1.28513
H          3.00394       -4.09237       -0.79792
H          1.58527       -5.14045       -0.57815
H          2.38148       -5.05879       -2.17007
C         -0.19138       -3.86548       -2.11453
H         -0.10415       -4.56680       -2.95783
H         -0.65899       -4.38539       -1.26620
H         -0.85298       -3.03343       -2.39710
C          1.76962       -2.29574       -2.66627
O          1.11794       -1.08792       -2.25642
C          1.44978       -2.55830       -4.12578
H          0.36699       -2.54139       -4.30562
H          1.91277       -1.78179       -4.75316
H          1.84723       -3.53370       -4.44589
C          3.26787       -2.08952       -2.47120
H          3.50667       -1.90835       -1.41299
H          3.85048       -2.95200       -2.82721
H          3.57845       -1.20109       -3.04035
B         -1.19977       -0.86924        1.30434
O         -1.63374       -0.48015        2.57438
C         -2.05159       -1.65534        3.27076
C         -0.83396       -2.20924        4.00663
H         -0.03989       -2.49391        3.30063
H         -0.43120       -1.42870        4.66868
H         -1.08693       -3.08543        4.62105
C         -3.13898       -1.28120        4.26041
H         -2.71769       -0.63516        5.04493
H         -3.55666       -2.17635        4.74606
H         -3.95134       -0.73028        3.76985
C         -2.51208       -2.57903        2.09352
O         -1.67477       -2.14127        1.02069
C         -2.27806       -4.06252        2.31429
H         -2.83388       -4.42535        3.19265
H         -2.62493       -4.62274        1.43367
H         -1.21159       -4.28160        2.45031
C         -3.96102       -2.32647        1.69405
H         -4.12809       -1.25737        1.49913
H         -4.17791       -2.88635        0.77328
H         -4.66340       -2.66533        2.46916
H         -0.78775        5.51867        3.33737
H         -0.08304        4.92891       -3.58067
C          2.24014        0.71095        0.41220
C          2.91912        1.83834        0.00763
C          3.27931       -0.16780        0.90732
N          4.28678        1.72783        0.22072
H          2.54558        2.75765       -0.44535
C          3.27381       -1.46702        1.44072
C          4.53183        0.49833        0.77095
C          5.28138        2.70619       -0.09808
C          4.47387       -2.05939        1.81471
H          2.33195       -2.01281        1.52624
C          5.74356       -0.09086        1.14898
H          6.00535        2.32507       -0.83911
H          5.84447        3.02032        0.79754
H          4.79334        3.59367       -0.52270
C          5.69737       -1.37784        1.67162
H          4.47123       -3.07280        2.22427
H          6.69425        0.43608        1.03632
H          6.62618       -1.86839        1.97406
