103
comp140_0_QRCF.log	Energy: -1401176.0117885
N          0.42330        2.31821       -1.20181
C          0.78108        3.32817       -0.39305
C          1.10483        4.58911       -0.90622
C          1.03851        4.79871       -2.27667
C          0.65068        3.74505       -3.10010
C          0.35494        2.51830       -2.51790
H          0.07762        1.64729       -3.11128
H          0.57751        3.86422       -4.18215
H          1.39335        5.40368       -0.24288
C          0.77742        3.02796        1.05034
N          0.34445        1.79972        1.40839
C          0.26855        1.47225        2.70577
C          0.63954        2.35537        3.71127
C          1.10710        3.61923        3.36148
C          1.17304        3.95713        2.01753
H          1.53248        4.94029        1.71732
H          0.55688        2.04392        4.75346
H         -0.11203        0.46925        2.91581
Ir        -0.15880        0.41537       -0.15663
H         -0.72487       -0.51160       -1.32810
B          1.82112       -0.19968        0.38796
O          3.02799        0.32336       -0.03697
C          4.00423        0.14857        0.99801
C          5.34488       -0.17235        0.36299
H          5.28113       -1.04967       -0.29261
H          6.10901       -0.36338        1.13178
H          5.67649        0.68198       -0.24508
C          4.08906        1.47260        1.74947
H          4.87364        1.45903        2.51993
H          4.31980        2.27118        1.02955
H          3.13281        1.71817        2.23124
C          3.38739       -1.01088        1.86122
O          1.99295       -0.90625        1.56212
C          3.83786       -2.39796        1.42293
H          3.67139       -2.53653        0.34776
H          4.89829       -2.57909        1.65116
H          3.23396       -3.14946        1.95108
C          3.57189       -0.85409        3.36072
H          3.11424        0.07336        3.72843
H          3.08752       -1.69576        3.87697
H          4.63869       -0.85504        3.63165
B         -0.81611       -1.16588        0.93713
O         -1.10771       -2.42476        0.45123
C         -1.36022       -3.29543        1.55256
C         -2.40112       -4.32012        1.14227
H         -3.29593       -3.83224        0.73433
H         -1.98453       -4.97322        0.36123
H         -2.69481       -4.95088        1.99560
C         -0.03661       -3.97321        1.89350
H         -0.14612       -4.72610        2.68837
H          0.34375       -4.46552        0.98691
H          0.70630       -3.22194        2.19808
C         -1.82719       -2.29236        2.65801
O         -1.10152       -1.11185        2.29869
C         -1.45880       -2.68680        4.07592
H         -0.37097       -2.77209        4.19654
H         -1.82242       -1.92299        4.77960
H         -1.92145       -3.64746        4.34975
C         -3.31120       -1.95456        2.56176
H         -3.58414       -1.68023        1.53203
H         -3.94445       -2.79152        2.89186
H         -3.51712       -1.08558        3.20339
B          0.89679       -0.78313       -1.49263
O          1.26302       -0.25483       -2.73338
C          1.42876       -1.34464       -3.64042
C          0.07851       -1.59566       -4.30781
H         -0.68595       -1.87256       -3.56691
H         -0.25320       -0.67005       -4.80093
H          0.13485       -2.38889       -5.06736
C          2.46593       -0.96568       -4.68108
H          2.08036       -0.14502       -5.30409
H          2.69291       -1.81616       -5.34201
H          3.39555       -0.62257       -4.20980
C          1.84735       -2.50467       -2.67550
O          1.19332       -2.13776       -1.45866
C          1.36519       -3.88432       -3.08583
H          1.77506       -4.17196       -4.06635
H          1.69907       -4.62427       -2.34383
H          0.26969       -3.92701       -3.12973
C          3.34895       -2.52599       -2.41612
H          3.69788       -1.53703       -2.08625
H          3.56113       -3.25370       -1.62003
H          3.91398       -2.82795       -3.30972
H          1.28165        5.77743       -2.69598
H          1.41464        4.33641        4.12551
C         -2.17189        1.12578       -0.07616
C         -2.51043        2.37854        0.44626
C         -3.26584        0.36821       -0.57212
C         -3.82713        2.87817        0.49019
H         -1.73397        3.03295        0.85121
C         -4.59475        0.88129       -0.51966
C         -3.37457       -0.93439       -1.17620
C         -4.89755        2.13990        0.00978
H         -4.00549        3.87040        0.91503
N         -5.44456       -0.05658       -1.05711
C         -4.69959       -1.14803       -1.44943
H         -2.56713       -1.64367       -1.33711
H         -5.91999        2.52247        0.04508
C         -6.86299        0.09688       -1.18728
H         -5.19112       -2.01005       -1.89896
H         -7.11939        0.95254       -1.83474
H         -7.34140        0.25544       -0.20620
H         -7.28806       -0.81168       -1.63364
