95
comp15_1_QRCR.log	Energy: -1372004.7450735
N         -1.08585       -2.28829        0.43473
C         -1.80830       -2.74710       -0.60133
C         -2.38412       -4.02139       -0.56925
C         -2.20078       -4.82221        0.55010
C         -1.43690       -4.33673        1.60764
C         -0.89460       -3.06128        1.50492
H         -0.25764       -2.63701        2.28284
H         -1.25888       -4.93253        2.50407
H         -2.97536       -4.38658       -1.40794
C         -1.94368       -1.83335       -1.75134
N         -1.35295       -0.62555       -1.64156
C         -1.41911        0.24019       -2.65789
C         -2.09598       -0.04779       -3.83595
C         -2.72206       -1.28264       -3.96384
C         -2.63977       -2.18341       -2.91090
H         -3.11769       -3.15858       -2.99035
H         -2.12350        0.69465       -4.63466
H         -0.88907        1.18374       -2.50413
Ir        -0.42643       -0.15993        0.23108
H         -0.17198        0.25140        1.75456
B          1.38681       -0.63987       -0.82491
O          2.66403       -0.11365       -0.84221
C          3.43214       -0.78279       -1.85447
C          4.37592        0.22345       -2.48489
H          3.83419        1.10888       -2.84129
H          4.92297       -0.22315       -3.32926
H          5.11171        0.55616       -1.73832
C          4.21823       -1.90740       -1.18971
H          4.82644       -2.45909       -1.92062
H          4.90046       -1.48692       -0.43841
H          3.54313       -2.61291       -0.68385
C          2.31310       -1.32589       -2.79770
O          1.23484       -1.53156       -1.87633
C          1.84783       -0.28435       -3.81058
H          1.61922        0.66963       -3.31201
H          2.60089       -0.10845       -4.59245
H          0.92801       -0.64664       -4.29247
C          2.62381       -2.63783       -3.49139
H          2.80190       -3.44280       -2.76713
H          1.76934       -2.93126       -4.11873
H          3.50689       -2.54220       -4.14144
B          0.07783        1.78486       -0.10861
O          0.16002        2.79184        0.82317
C          0.84227        3.90098        0.23109
C          0.32232        5.18694        0.84453
H         -0.77140        5.25111        0.78018
H          0.59853        5.22152        1.90819
H          0.76082        6.06644        0.34847
C          2.32844        3.72879        0.52950
H          2.92023        4.58124        0.16453
H          2.45555        3.64722        1.61772
H          2.71148        2.79788        0.08733
C          0.50964        3.71394       -1.28672
O          0.37013        2.28847       -1.37892
C          1.60037        4.15872       -2.24239
H          2.52860        3.59846       -2.07168
H          1.28119        3.98293       -3.28073
H          1.80952        5.23329       -2.12891
C         -0.82817        4.33069       -1.67818
H         -1.62166        4.02944       -0.97895
H         -0.78218        5.42907       -1.69884
H         -1.10551        3.98323       -2.68492
B          1.27912       -0.30164        1.43407
O          1.67836       -1.51029        1.99732
C          2.55319       -1.23133        3.09809
C          1.70518       -1.29259        4.36474
H          0.89677       -0.54727        4.33734
H          1.24717       -2.29025        4.44123
H          2.30309       -1.12371        5.27160
C          3.63425       -2.29532        3.14025
H          3.18069       -3.27579        3.34769
H          4.36605       -2.08276        3.93407
H          4.16380       -2.36347        2.18160
C          3.06903        0.22160        2.77311
O          2.03965        0.73417        1.93112
C          3.19292        1.13010        3.98571
H          3.92114        0.73030        4.70777
H          3.54358        2.12061        3.66181
H          2.22835        1.26659        4.49044
C          4.37084        0.24392        1.98401
H          4.28394       -0.37133        1.08292
H          4.56397        1.27618        1.65891
H          5.22389       -0.09861        2.58748
H         -2.64912       -5.81699        0.59339
H         -3.26797       -1.54561       -4.87225
C         -2.40549        0.40761        0.75407
C         -3.08767       -0.13677        1.85516
C         -3.18652        1.32474        0.03217
N         -4.34408        0.15793        2.18290
H         -2.59041       -0.85776        2.51647
N         -4.44433        1.64290        0.32860
H         -2.77216        1.83868       -0.84447
C         -4.95860        1.03318        1.39300
C         -6.33329        1.35334        1.72334
N         -7.43357        1.60454        1.98312
