98
comp97_2_QRCR.log	Energy: -1803554.9721863
N          0.13460       -2.05452       -1.48948
C          0.36354       -3.21714       -0.85751
C          0.55556       -4.40681       -1.56699
C          0.48514       -4.38603       -2.95387
C          0.20959       -3.18136       -3.59230
C          0.04143       -2.03721       -2.81921
H         -0.19829       -1.06883       -3.25714
H          0.12757       -3.11682       -4.67834
H          0.76284       -5.34025       -1.04505
C          0.36037       -3.16036        0.61587
N          0.22620       -1.93952        1.17211
C          0.15512       -1.81939        2.50615
C          0.22708       -2.91836        3.35156
C          0.37939       -4.18532        2.79596
C          0.44421       -4.30484        1.41522
H          0.54870       -5.28679        0.95646
H          0.16955       -2.76848        4.43048
H          0.05435       -0.79808        2.88141
Ir         0.13020       -0.22082       -0.13504
H          0.26092        1.04636       -1.09047
B         -1.90595       -0.44580        0.47765
O         -2.88090       -1.24656       -0.08135
C         -3.79488       -1.64996        0.94757
C         -5.19833       -1.69618        0.37221
H         -5.48446       -0.73526       -0.07310
H         -5.93340       -1.95538        1.14918
H         -5.24710       -2.46265       -0.41489
C         -3.36724       -3.04661        1.38687
H         -4.05575       -3.47336        2.13044
H         -3.35479       -3.70331        0.50501
H         -2.35504       -3.03764        1.81476
C         -3.57036       -0.55779        2.05552
O         -2.24662       -0.09593        1.76720
C         -4.50138        0.63969        1.92513
H         -4.46719        1.04956        0.90855
H         -5.54095        0.38263        2.17488
H         -4.16228        1.42723        2.61325
C         -3.59830       -1.08364        3.48014
H         -2.82975       -1.85003        3.64369
H         -3.40294       -0.25595        4.17740
H         -4.58212       -1.51196        3.72481
B          0.31540        1.29853        1.19686
O          0.30222        2.64311        0.90009
C          0.22100        3.36678        2.12959
C          0.92349        4.70079        1.96997
H          1.94742        4.57111        1.59682
H          0.37561        5.31919        1.24414
H          0.95910        5.24487        2.92638
C         -1.26228        3.56843        2.42656
H         -1.42621        4.18995        3.31940
H         -1.72517        4.06065        1.55957
H         -1.76198        2.59767        2.56029
C          0.90431        2.37630        3.12748
O          0.55393        1.10959        2.55304
C          0.38067        2.43539        4.54936
H         -0.69053        2.19873        4.58873
H          0.91629        1.70487        5.17398
H          0.53895        3.43385        4.98483
C          2.42538        2.47405        3.10730
H          2.80470        2.45522        2.07530
H          2.78502        3.38853        3.60128
H          2.84749        1.60479        3.63209
B         -1.32603        0.79335       -1.22805
O         -1.58627        0.41600       -2.54282
C         -2.17375        1.53559       -3.21251
C         -1.04000        2.33614       -3.84648
H         -0.34705        2.72117       -3.08554
H         -0.46530        1.67500       -4.51106
H         -1.41868        3.18073       -4.44015
C         -3.11855        1.02378       -4.28369
H         -2.54254        0.50851       -5.06651
H         -3.66528        1.85365       -4.75667
H         -3.84245        0.30989       -3.87086
C         -2.86317        2.29479       -2.02696
O         -2.04028        1.93515       -0.91194
C         -2.86553        3.80718       -2.15440
H         -3.41463        4.12739       -3.05314
H         -3.35898        4.24810       -1.27592
H         -1.84371        4.20397       -2.19959
C         -4.27232        1.78535       -1.75180
H         -4.27166        0.69333       -1.62528
H         -4.63970        2.24427       -0.82295
H         -4.96793        2.05293       -2.55998
H          0.63773       -5.30338       -3.52658
H          0.44350       -5.07286        3.42897
C          2.27707       -0.17156       -0.11473
C          2.96809       -0.66870        1.00789
C          3.13811        0.37471       -1.09363
N          4.29006       -0.68915        1.18463
H          2.40797       -1.06851        1.85595
C          2.62116        1.04154       -2.34731
C          4.52535        0.36561       -0.93478
C          5.03891       -0.19271        0.23060
F          1.77417        0.26438       -3.03632
F          1.97522        2.18417       -2.07757
F          3.60882        1.35879       -3.19448
H          5.19036        0.78257       -1.68935
Cl         6.76854       -0.23073        0.45366
