96
comp59_1_QRCR.log	Energy: -1808192.2371108
N          0.24017        2.28422        1.09249
C          0.31231        3.24253        0.15595
C          0.18102        4.59337        0.49028
C          0.00252        4.94639        1.82132
C         -0.03503        3.94264        2.78447
C          0.08189        2.62037        2.37134
H          0.02419        1.79082        3.07523
H         -0.15961        4.17239        3.84371
H          0.22864        5.36491       -0.27720
C          0.59610        2.77940       -1.21450
N          0.73192        1.44753       -1.38319
C          1.05792        0.95670       -2.58521
C          1.26331        1.78004       -3.68522
C          1.11586        3.15534       -3.53400
C          0.77767        3.65705       -2.28523
H          0.66568        4.73021       -2.13899
H          1.53531        1.33533       -4.64342
H          1.14196       -0.13232       -2.64205
Ir         0.34759        0.17389        0.31023
H          0.24759       -0.74614        1.61408
B         -1.54376        0.25048       -0.69039
O         -2.49357        1.25010       -0.61444
C         -3.24083        1.28428       -1.83830
C         -4.69781        1.56261       -1.51544
H         -5.10489        0.82507       -0.81280
H         -5.31217        1.55313       -2.42844
H         -4.78654        2.55646       -1.05291
C         -2.66999        2.42534       -2.67157
H         -3.23865        2.57922       -3.60004
H         -2.71225        3.35039       -2.07834
H         -1.62008        2.24091       -2.93442
C         -2.95967       -0.13485       -2.45994
O         -1.74606       -0.52299       -1.81259
C         -4.01337       -1.17518       -2.10521
H         -4.16629       -1.21968       -1.02064
H         -4.97575       -0.97118       -2.59660
H         -3.65888       -2.16326       -2.43185
C         -2.72140       -0.13535       -3.96075
H         -1.86320        0.49196       -4.23348
H         -2.50466       -1.16127       -4.29219
H         -3.60934        0.22040       -4.50504
B          0.56397       -1.66894       -0.51897
O          0.41731       -2.86669        0.15669
C          0.40380       -3.92410       -0.80307
C          1.00168       -5.17035       -0.17875
H          1.99741       -4.97077        0.23823
H          0.35426       -5.51713        0.63996
H          1.08366       -5.98229       -0.91770
C         -1.05630       -4.15727       -1.18039
H         -1.17789       -5.00738       -1.86808
H         -1.62413       -4.35853       -0.26092
H         -1.48063       -3.25144       -1.63717
C          1.23912       -3.30935       -1.97456
O          0.95379       -1.91422       -1.82973
C          0.81503       -3.75600       -3.36135
H         -0.22545       -3.47367       -3.56713
H          1.45431       -3.27706       -4.11807
H          0.91664       -4.84646       -3.47274
C          2.74230       -3.48517       -1.79013
H          3.05556       -3.15709       -0.78840
H          3.05660       -4.52808       -1.94377
H          3.26515       -2.85358       -2.52314
B         -1.34173       -0.39316        1.38390
O         -1.74759        0.37289        2.47636
C         -2.51313       -0.46814        3.33988
C         -1.54583       -1.10415        4.33523
H         -0.80201       -1.72979        3.82022
H         -1.00636       -0.30652        4.86685
H         -2.06796       -1.72215        5.08001
C         -3.53591        0.38042        4.07199
H         -3.01917        1.07670        4.74897
H         -4.20947       -0.24526        4.67727
H         -4.13538        0.97517        3.37134
C         -3.10868       -1.50931        2.33231
O         -2.11212       -1.54378        1.30641
C         -3.27906       -2.91222        2.88668
H         -3.97279       -2.91860        3.74148
H         -3.69235       -3.56677        2.10538
H         -2.31796       -3.33604        3.20365
C         -4.41295       -1.02786        1.70950
H         -4.28701       -0.02648        1.27379
H         -4.70313       -1.72331        0.90946
H         -5.22963       -0.99926        2.44497
H         -0.09765        5.99683        2.10306
H          1.26559        3.83259       -4.37755
C          2.43751       -0.00418        0.72753
C          3.48694        0.85356        0.52848
C          2.96810       -1.20761        1.32655
S          5.04256        0.24297        1.02410
Cl         3.49370        2.46038       -0.12591
C          4.31895       -1.23990        1.54699
H          2.33130       -2.05831        1.58087
C          5.13595       -2.34083        2.13446
H          4.48063       -3.18632        2.38942
H          5.65644       -2.02816        3.05445
H          5.90268       -2.70779        1.43260
