96
comp173_4_QRCF.log	Energy: -1644530.3207336
N         -0.83932       -2.14938       -1.28766
C         -1.23801       -3.11798       -0.44840
C         -1.95285       -4.22686       -0.90995
C         -2.23069       -4.33721       -2.26617
C         -1.78620       -3.33837       -3.12674
C         -1.09732       -2.25631       -2.59007
H         -0.75944       -1.42530       -3.20861
H         -1.97257       -3.38526       -4.20071
H         -2.28420       -5.00263       -0.22081
C         -0.84370       -2.95060        0.96239
N         -0.15158       -1.83324        1.26684
C          0.26654       -1.62681        2.52198
C          0.01169       -2.53565        3.54154
C         -0.70198       -3.69344        3.24804
C         -1.13195       -3.90041        1.94472
H         -1.68764       -4.80131        1.68948
H          0.37517       -2.32648        4.54856
H          0.81227       -0.69370        2.68954
Ir         0.19482       -0.40219       -0.30641
H          0.62216        0.54426       -1.52112
B         -1.58672        0.32408        0.63111
O         -2.88179       -0.10384        0.41708
C         -3.64647        0.09783        1.61393
C         -5.04126        0.55979        1.23275
H         -5.01246        1.46365        0.61169
H         -5.64529        0.76919        2.12852
H         -5.54424       -0.23101        0.65727
C         -3.72315       -1.25113        2.31901
H         -4.36238       -1.21124        3.21280
H         -4.14340       -1.99007        1.62126
H         -2.72669       -1.60020        2.62069
C         -2.78970        1.15811        2.40178
O         -1.48963        0.99284        1.83106
C         -3.21483        2.59732        2.14495
H         -3.25216        2.80559        1.06938
H         -4.19471        2.82358        2.58981
H         -2.46738        3.27065        2.58847
C         -2.69009        0.90988        3.89752
H         -2.24070       -0.06732        4.11556
H         -2.05020        1.68114        4.35029
H         -3.67980        0.96093        4.37614
B          1.18006        1.06395        0.70239
O          1.66452        2.22301        0.12714
C          2.10068        3.09953        1.16727
C          3.27782        3.91418        0.66487
H          4.07082        3.26817        0.26561
H          2.94365        4.57897       -0.14509
H          3.69848        4.53859        1.46806
C          0.91832        4.00444        1.50048
H          1.17604        4.76612        2.25123
H          0.59650        4.50832        0.57811
H          0.06882        3.40670        1.86174
C          2.44111        2.09654        2.32105
O          1.54602        1.01372        2.04021
C          2.15524        2.61507        3.71856
H          1.09028        2.84855        3.84467
H          2.42687        1.85000        4.46126
H          2.74583        3.51911        3.93193
C          3.86133        1.54909        2.23754
H          4.09195        1.18210        1.22783
H          4.60810        2.30680        2.51659
H          3.95451        0.69974        2.93011
B         -0.95341        0.98811       -1.34800
O         -1.58780        0.61182       -2.53160
C         -1.80020        1.79342       -3.30648
C         -0.57275        1.98576       -4.19349
H          0.33401        2.13449       -3.58883
H         -0.42807        1.08176       -4.80311
H         -0.68545        2.84390       -4.87176
C         -3.04069        1.60534       -4.15937
H         -2.85946        0.81606       -4.90391
H         -3.29312        2.53036       -4.69982
H         -3.90142        1.30248       -3.54990
C         -1.91535        2.89132       -2.19526
O         -1.10066        2.35177       -1.14996
C         -1.36582        4.25295       -2.58033
H         -1.90713        4.66870       -3.44407
H         -1.48402        4.94734       -1.73563
H         -0.29678        4.19864       -2.82115
C         -3.33670        3.02776       -1.66441
H         -3.72774        2.04970       -1.34952
H         -3.32821        3.69801       -0.79346
H         -4.01273        3.45937       -2.41632
H         -2.78481       -5.19840       -2.64585
H         -0.92147       -4.43022        4.02370
C          2.15486       -1.21642       -0.63163
C          2.52268       -2.55773       -0.51024
C          3.22001       -0.35906       -0.97158
C          3.81688       -3.04179       -0.67611
F          1.58930       -3.48973       -0.21244
C          4.52581       -0.81461       -1.13094
H          3.03375        0.70933       -1.09530
C          4.84767       -2.16079       -0.98537
H          4.00230       -4.11140       -0.55575
Cl         5.78522        0.33934       -1.48522
H          5.87460       -2.50670       -1.10992
