94
comp49_0_QRCR_v2.log	Energy: -1553135.1860690
N          1.66578       -1.94524       -0.14238
C          2.54202       -1.98559        0.87425
C          3.45373       -3.03680        1.00355
C          3.44844       -4.05535        0.05776
C          2.52984       -4.00130       -0.98440
C          1.65005       -2.92435       -1.04608
H          0.89883       -2.83155       -1.83045
H          2.48918       -4.77436       -1.75290
H          4.17033       -3.05744        1.82389
C          2.47608       -0.86213        1.82955
N          1.61884        0.13640        1.53300
C          1.49380        1.18280        2.36008
C          2.22706        1.28217        3.53554
C          3.11532        0.26208        3.86137
C          3.23988       -0.81872        2.99926
H          3.92241       -1.63290        3.23816
H          2.09477        2.15398        4.17763
H          0.78451        1.95162        2.04159
Ir         0.49511       -0.01360       -0.30132
H         -0.12461       -0.03420       -1.77329
B         -0.98139       -0.54214        1.15151
O         -1.21462       -1.78894        1.69357
C         -1.70823       -1.62560        3.02998
C         -2.74754       -2.69610        3.30643
H         -3.55443       -2.67576        2.56338
H         -3.18771       -2.56821        4.30701
H         -2.27337       -3.68744        3.26462
C         -0.51369       -1.80552        3.96114
H         -0.80784       -1.76841        5.02000
H         -0.05606       -2.78486        3.75973
H          0.24888       -1.03400        3.78430
C         -2.26159       -0.15471        3.01451
O         -1.50780        0.44519        1.95608
C         -3.73072       -0.06427        2.62527
H         -3.91668       -0.59919        1.68600
H         -4.39023       -0.46827        3.40694
H         -3.98903        0.99208        2.46354
C         -2.01208        0.63176        4.28952
H         -0.94012        0.71147        4.51178
H         -2.40811        1.65091        4.17145
H         -2.51809        0.16517        5.14832
B         -0.35422        1.83007       -0.40673
O         -1.16109        2.28651       -1.42672
C         -1.78928        3.49196       -0.98730
C         -2.04800        4.38497       -2.18517
H         -1.13211        4.54946       -2.76710
H         -2.78597        3.90681       -2.84559
H         -2.45056        5.36028       -1.87090
C         -3.10223        3.08924       -0.32146
H         -3.69761        3.96277       -0.01672
H         -3.68464        2.49170       -1.03668
H         -2.90891        2.45405        0.55535
C         -0.74201        4.04564        0.03431
O         -0.16159        2.83407        0.53416
C         -1.33174        4.82280        1.19592
H         -2.00968        4.19506        1.78851
H         -0.52529        5.17381        1.85724
H         -1.88532        5.70469        0.83880
C          0.37352        4.84034       -0.63392
H          0.79130        4.28660       -1.48686
H          0.02481        5.82380       -0.98194
H          1.18458        4.99390        0.09272
B         -1.25538       -0.92440       -0.98036
O         -1.18388       -2.19650       -1.53508
C         -2.30410       -2.33870       -2.41669
C         -1.87760       -1.82178       -3.78712
H         -1.64768       -0.74684       -3.75199
H         -0.95815       -2.33542       -4.10113
H         -2.65665       -1.98870       -4.54533
C         -2.68151       -3.80523       -2.49566
H         -1.87878       -4.36339       -2.99948
H         -3.60600       -3.94292       -3.07689
H         -2.82081       -4.23735       -1.49642
C         -3.36233       -1.41355       -1.72794
O         -2.53520       -0.41587       -1.11326
C         -4.32419       -0.72483       -2.67791
H         -4.91499       -1.46196       -3.24307
H         -5.02031       -0.09510       -2.10443
H         -3.79033       -0.07875       -3.38574
C         -4.12903       -2.13162       -0.62459
H         -3.43468       -2.60688        0.08312
H         -4.73820       -1.39767       -0.07794
H         -4.80579       -2.89644       -1.03177
H          4.15936       -4.88083        0.13605
H          3.70626        0.30393        4.77888
C          2.18757        0.78671       -1.26605
S          3.17737        2.01330       -0.57059
C          2.72800        0.45619       -2.50807
C          4.27917        2.07272       -1.89887
C          3.91239        1.18478       -2.86698
C          2.14769       -0.54606       -3.33660
H          5.12864        2.75437       -1.90066
H          4.45036        1.03989       -3.80472
N          1.67823       -1.37805       -3.99915
