107
comp65_3_QRCF_v2.log	Energy: -1583603.2197765
N         -1.08607        1.98018        1.45190
C         -1.98103        2.78952        0.86632
C         -2.73104        3.70423        1.61291
C         -2.52467        3.78817        2.98346
C         -1.57352        2.96002        3.57159
C         -0.87814        2.06566        2.76478
H         -0.14543        1.37105        3.17505
H         -1.36777        2.99808        4.64241
H         -3.46219        4.35196        1.13067
C         -2.08698        2.67749       -0.60119
N         -1.27260        1.78329       -1.19611
C         -1.27591        1.65659       -2.52897
C         -2.11314        2.41556       -3.33674
C         -2.97123        3.33544       -2.74157
C         -2.95396        3.46866       -1.36043
H         -3.61017        4.18764       -0.87229
H         -2.08033        2.27991       -4.41857
H         -0.57475        0.92115       -2.93378
Ir         0.01470        0.58099        0.04638
H          1.13651       -0.15580        0.90991
B         -1.66349       -0.69149       -0.26552
O         -2.87038       -0.61465        0.40997
C         -3.90508       -1.13913       -0.43282
C         -4.91618       -1.87627        0.42535
H         -4.43901       -2.65715        1.03065
H         -5.69469       -2.34279       -0.19739
H         -5.40421       -1.16775        1.11056
C         -4.56832        0.05175       -1.11553
H         -5.43285       -0.25215       -1.72343
H         -4.91466        0.75316       -0.34256
H         -3.85776        0.58435       -1.76285
C         -3.09858       -2.04366       -1.42821
O         -1.81314       -1.41469       -1.43082
C         -2.90161       -3.46523       -0.91697
H         -2.47654       -3.45569        0.09505
H         -3.84068       -4.03750       -0.91616
H         -2.17955       -3.97852       -1.56750
C         -3.63328       -2.06222       -2.84852
H         -3.62802       -1.05844       -3.29262
H         -2.99720       -2.70876       -3.47056
H         -4.65914       -2.45996       -2.88071
B          0.97764       -0.55574       -1.33777
O          1.73972       -1.68352       -1.09197
C          1.99191       -2.34079       -2.33384
C          3.35201       -3.01067       -2.28145
H          4.13929       -2.29699       -2.00894
H          3.34113       -3.81012       -1.52571
H          3.60405       -3.46311       -3.25303
C          0.89053       -3.38067       -2.51801
H          1.04138       -3.99040       -3.42134
H          0.88831       -4.04245       -1.63980
H         -0.09163       -2.88931       -2.56190
C          1.88625       -1.16012       -3.35527
O          0.94569       -0.29920       -2.70338
C          1.34003       -1.54352       -4.71788
H          0.32600       -1.95683       -4.63951
H          1.29851       -0.65388       -5.36412
H          1.98853       -2.28677       -5.20665
C          3.18713       -0.37789       -3.49508
H          3.57876       -0.09996       -2.50584
H          3.95038       -0.94672       -4.04689
H          2.98050        0.55134       -4.04599
B         -0.20570       -1.03582        1.33289
O         -0.31160       -0.80116        2.70672
C         -0.60399       -2.03668        3.36384
C          0.06273       -2.03942        4.72713
H          1.13501       -1.81755        4.65121
H         -0.39830       -1.27231        5.36678
H         -0.06189       -3.01411        5.22308
C         -2.11877       -2.12490        3.51192
H         -2.46799       -1.24761        4.07565
H         -2.42878       -3.03147        4.05190
H         -2.60759       -2.09627        2.52847
C         -0.02568       -3.07872        2.34964
O         -0.19260       -2.40312        1.10048
C          1.46910       -3.31659        2.53224
H          1.68604       -3.91359        3.43007
H          1.84903       -3.85127        1.65042
H          2.01429       -2.36513        2.60103
C         -0.76307       -4.40336        2.30570
H         -1.82455       -4.27017        2.06230
H         -0.31622       -5.04775        1.53472
H         -0.68932       -4.92349        3.27293
H         -3.09699        4.49913        3.58338
H         -3.64486        3.94757       -3.34508
C          1.42531        2.13284       -0.24169
C          1.22542        3.50863       -0.39533
N          2.78261        1.98825       -0.35286
C          2.47259        4.15282       -0.60098
H          0.25778        4.00874       -0.36850
C          3.44013        3.16766       -0.57207
O          3.43159        0.79553       -0.28069
H          2.65107        5.21499       -0.76244
H          4.51793        3.18915       -0.71112
Si         4.16370        0.38266        1.21864
C          5.79114        1.30370        1.36255
C          3.05449        0.87089        2.64505
C          4.42413       -1.45369        1.03504
H          6.35606        0.95556        2.24265
H          5.62522        2.38637        1.47288
H          6.41558        1.13878        0.47064
H          2.68274        1.89512        2.48094
H          3.62861        0.85707        3.58555
H          2.18037        0.21285        2.75523
H          3.49484       -1.90741        0.65855
H          4.70171       -1.92215        1.99203
H          5.22314       -1.66305        0.30725
