102
Int2_comp41_0_Sub21.log	Energy: -1368057.0668895
N         -0.27994        2.25586        1.29409
C         -0.15853        3.33749        0.50986
C         -0.28301        4.62806        1.03393
C         -0.53900        4.78515        2.38980
C         -0.67521        3.65140        3.18600
C         -0.53960        2.40104        2.59284
H         -0.66626        1.47133        3.15074
H         -0.88494        3.72669        4.25409
H         -0.17403        5.50298        0.39399
C          0.09715        3.07094       -0.91891
N          0.24404        1.77901       -1.27392
C          0.45574        1.45378       -2.55482
C          0.52890        2.41641       -3.55383
C          0.37892        3.75637       -3.20898
C          0.16135        4.08505       -1.87823
H          0.03441        5.12629       -1.58557
H          0.70319        2.10680       -4.58523
H          0.57032        0.38476       -2.75593
Ir         0.19463        0.29857        0.28875
H          0.43454       -0.70388        1.50781
B         -1.76353        0.07774       -0.56203
O         -1.88916       -0.50076       -1.80540
C         -3.20262       -0.26286       -2.31664
C         -3.09287        0.04982       -3.79925
H         -2.39863        0.87913       -3.98642
H         -4.07496        0.30665       -4.22470
H         -2.70996       -0.83459       -4.32886
C         -4.00251       -1.54303       -2.11586
H         -5.01461       -1.46823       -2.53958
H         -3.47411       -2.36807       -2.61495
H         -4.07877       -1.79237       -1.05078
C         -3.70202        0.93400       -1.42712
O         -2.89344        0.80982       -0.25097
C         -3.38997        2.29928       -2.03170
H         -2.33677        2.36793       -2.33781
H         -4.02143        2.51687       -2.90526
H         -3.57029        3.07070       -1.26898
C         -5.16487        0.86723       -1.02787
H         -5.38775       -0.04879       -0.46635
H         -5.40927        1.72563       -0.38529
H         -5.81775        0.90409       -1.91313
B          0.84902       -1.34614       -0.70382
O          1.27623       -2.51410       -0.09688
C          1.46108       -3.50439       -1.10842
C          2.58513       -4.43477       -0.69342
H          3.49838       -3.87515       -0.45237
H          2.28525       -4.99573        0.20386
H          2.81356       -5.15979       -1.48986
C          0.14623       -4.26976       -1.22815
H          0.21501       -5.10402       -1.94207
H         -0.11452       -4.67040       -0.23831
H         -0.66740       -3.59514       -1.53205
C          1.76536       -2.62786       -2.36774
O          1.01524       -1.44348       -2.08038
C          1.28163       -3.21006       -3.68253
H          0.19241       -3.34454       -3.67922
H          1.53751       -2.52846       -4.50758
H          1.76005       -4.18092       -3.88374
C          3.23192       -2.22092       -2.46668
H          3.58240       -1.78866       -1.51814
H          3.87820       -3.06826       -2.73929
H          3.33262       -1.44648       -3.24139
B         -1.21716       -0.83445        1.31999
O         -1.75583       -0.37221        2.52388
C         -2.17375       -1.51126        3.27854
C         -0.99112       -1.95048        4.13817
H         -0.13809       -2.25255        3.51277
H         -0.66971       -1.10312        4.76145
H         -1.25292       -2.78708        4.80217
C         -3.34651       -1.11818        4.15702
H         -3.01279       -0.39733        4.91812
H         -3.76095       -1.99463        4.67826
H         -4.14270       -0.64371        3.56963
C         -2.50739       -2.54215        2.14773
O         -1.61525       -2.14595        1.10352
C         -2.22797       -3.99203        2.50030
H         -2.83089       -4.31324        3.36362
H         -2.48603       -4.63327        1.64478
H         -1.16623       -4.14939        2.72828
C         -3.93204       -2.39141        1.62799
H         -4.13624       -1.34538        1.35720
H         -4.04663       -3.01294        0.72869
H         -4.67523       -2.72094        2.36830
H         -0.63345        5.78510        2.81890
H          0.42907        4.54023       -3.96788
C          2.23247        0.71931        0.50643
O          2.67388        1.99309        0.24996
C          3.32871       -0.03353        0.85165
C          4.01614        2.03580        0.42798
C          4.48826        0.81271        0.80220
H          3.29012       -1.09171        1.10484
H          4.50234        2.99290        0.25066
C          5.91072        0.42346        1.08141
H          6.53744        1.31833        0.91807
C          6.09173       -0.01802        2.53370
H          7.14197       -0.27684        2.74469
H          5.78415        0.77649        3.22978
H          5.47557       -0.90535        2.75060
C          6.38212       -0.66225        0.11318
H          6.27647       -0.33413       -0.93171
H          7.43754       -0.92543        0.28973
H          5.78293       -1.57935        0.23419
