103
Int2_comp22_6_Sub16.log	Energy: -1459888.4580283
N          0.77818        2.11719       -1.43470
C          0.81391        3.25513       -0.72311
C          1.13376        4.47535       -1.32658
C          1.41790        4.50286       -2.68585
C          1.38631        3.31182       -3.40559
C          1.06383        2.13662       -2.73599
H          1.05634        1.16481       -3.23270
H          1.60947        3.28506       -4.47318
H          1.15780        5.39618       -0.74482
C          0.50447        3.12367        0.71425
N          0.20867        1.88332        1.15329
C         -0.05410        1.67203        2.44841
C         -0.04195        2.70561        3.37624
C          0.25045        3.99568        2.94296
C          0.52731        4.20522        1.59898
H          0.76550        5.20494        1.23857
H         -0.26449        2.49048        4.42222
H         -0.27310        0.63559        2.72101
Ir         0.10857        0.30668       -0.30154
H         -0.23196       -0.73056       -1.46617
B          2.06921        0.00877        0.53439
O          3.24395        0.60598        0.12368
C          4.09616        0.77944        1.26342
C          5.53447        0.54142        0.84170
H          5.65959       -0.44381        0.37510
H          6.21512        0.61060        1.70372
H          5.83253        1.30359        0.10708
C          3.92134        2.22211        1.72593
H          4.59738        2.47270        2.55610
H          4.14127        2.89161        0.88160
H          2.88869        2.41430        2.04887
C          3.52244       -0.26880        2.28619
O          2.17972       -0.44608        1.82693
C          4.20684       -1.62703        2.21238
H          4.23780       -1.99466        1.17983
H          5.23131       -1.59446        2.61083
H          3.62294       -2.34533        2.80555
C          3.47877        0.20800        3.72795
H          2.85980        1.10777        3.83753
H          3.03986       -0.57987        4.35699
H          4.48976        0.42512        4.10488
B         -0.66076       -1.20734        0.81329
O         -1.35599       -2.27793        0.25872
C         -1.67692       -3.20634        1.30072
C         -3.00983       -3.86017        0.98528
H         -3.79016       -3.11402        0.78227
H         -2.90663       -4.49082        0.09000
H         -3.33955       -4.50189        1.81675
C         -0.55873       -4.24233        1.32872
H         -0.75065       -5.03621        2.06544
H         -0.48033       -4.69883        0.33173
H          0.40782       -3.76659        1.54843
C         -1.68152       -2.28207        2.56324
O         -0.72883       -1.27550        2.19491
C         -1.21628       -2.95009        3.84312
H         -0.18348       -3.30940        3.75094
H         -1.25192       -2.22813        4.67244
H         -1.86743       -3.79862        4.10311
C         -3.02006       -1.58349        2.77951
H         -3.37510       -1.10265        1.85681
H         -3.79322       -2.28120        3.13250
H         -2.89272       -0.79855        3.53950
B          1.38834       -1.04832       -1.23300
O          1.97510       -0.75686       -2.46493
C          2.25872       -1.99861       -3.11487
C          1.03532       -2.36747       -3.94970
H          0.15013       -2.51342       -3.31315
H          0.81833       -1.54485       -4.64674
H          1.19864       -3.28256       -4.53711
C          3.47229       -1.82222       -4.00784
H          3.22833       -1.13423       -4.83075
H          3.78108       -2.78242       -4.44845
H          4.31769       -1.39699       -3.45243
C          2.46559       -2.96134       -1.89660
O          1.62526       -2.37298       -0.89903
C          2.01583       -4.39247       -2.12747
H          2.57856       -4.85574       -2.95238
H          2.19318       -4.98394       -1.21737
H          0.94370       -4.44243       -2.35570
C          3.89644       -2.93598       -1.37360
H          4.22652       -1.90148       -1.20028
H          3.93218       -3.47793       -0.41802
H          4.59549       -3.42114       -2.06988
H          1.66441        5.44689       -3.17655
H          0.26485        4.83289        3.64405
C         -1.90076        0.89427       -0.54349
N         -2.90899       -0.03849       -0.62531
C         -2.50410        2.14926       -0.58667
C         -4.12778        0.57068       -0.69498
H         -2.74102       -1.03891       -0.58932
C         -3.91827        1.96873       -0.68177
H         -1.98902        3.10795       -0.54807
C         -5.42797        0.05081       -0.72497
C         -5.06621        2.79129       -0.74497
N         -6.48208        0.82901       -0.77806
O         -5.56105       -1.29327       -0.67931
C         -6.29900        2.16794       -0.79538
H         -4.99564        3.88108       -0.74837
H         -7.21449        2.76760       -0.84559
C         -6.87455       -1.79804       -0.70691
H         -7.46552       -1.42862        0.14598
H         -7.39945       -1.50093       -1.62838
H         -6.78449       -2.89121       -0.65944
