100
Int2_comp159_7_Sub14.log	Energy: -1653233.2910250
N          0.63898       -2.04537       -1.15601
C          1.43068       -2.76302       -0.34410
C          2.03124       -3.94722       -0.78363
C          1.80412       -4.37826       -2.08357
C          0.96938       -3.62797       -2.90805
C          0.40275       -2.46518       -2.39899
H         -0.28494       -1.84449       -2.97732
H          0.75452       -3.93446       -3.93285
H          2.67750       -4.52301       -0.12212
C          1.58716       -2.24423        1.02824
N          0.97457       -1.07541        1.30653
C          1.03622       -0.56127        2.54070
C          1.72107       -1.19737        3.56796
C          2.35561       -2.40833        3.30314
C          2.28220       -2.93784        2.02302
H          2.76251       -3.88820        1.79551
H          1.75033       -0.73973        4.55769
H          0.52298        0.39400        2.67796
Ir         0.07227       -0.04038       -0.33733
H         -0.31051        0.79500       -1.64731
B         -1.66420       -0.79217        0.68286
O         -2.25556       -2.02771        0.51558
C         -2.79583       -2.45188        1.77376
C         -4.09202       -3.20108        1.52523
H         -4.80434       -2.59479        0.95153
H         -4.56567       -3.49515        2.47412
H         -3.88343       -4.11395        0.94859
C         -1.76528       -3.38672        2.39918
H         -2.12452       -3.82347        3.34221
H         -1.55760       -4.20320        1.69247
H         -0.81909       -2.86302        2.59538
C         -2.95361       -1.09660        2.55518
O         -2.00058       -0.25207        1.90323
C         -4.32133       -0.45058        2.38048
H         -4.58684       -0.37789        1.31905
H         -5.10991       -1.00574        2.90900
H         -4.28106        0.57070        2.78596
C         -2.60192       -1.16975        4.03111
H         -1.56329       -1.49034        4.18339
H         -2.71570       -0.17288        4.48125
H         -3.26881       -1.86484        4.56353
B         -0.21291        1.79891        0.48233
O         -0.51992        2.94310       -0.23469
C         -0.88057        3.96929        0.69258
C         -0.49061        5.31838        0.11962
H          0.56744        5.34084       -0.17184
H         -1.09258        5.52398       -0.77755
H         -0.67511        6.12419        0.84669
C         -2.39171        3.88536        0.88657
H         -2.76886        4.68581        1.54021
H         -2.87485        3.97281       -0.09661
H         -2.67579        2.90841        1.30390
C         -0.08565        3.54152        1.96942
O         -0.05430        2.11729        1.82529
C         -0.75619        3.88721        3.28562
H         -1.73144        3.39188        3.37464
H         -0.12666        3.55174        4.12338
H         -0.89841        4.97450        3.38211
C          1.35882        4.02997        1.95945
H          1.84825        3.79542        1.00292
H          1.42862        5.11326        2.13625
H          1.91339        3.51324        2.75651
B         -1.78167        0.09650       -1.28792
O         -2.06941       -0.70522       -2.39474
C         -3.07077       -0.03850       -3.16685
C         -2.35196        0.84906       -4.17955
H         -1.74797        1.61730       -3.67452
H         -1.67339        0.22621       -4.78064
H         -3.05540        1.34892       -4.86108
C         -3.91555       -1.07633       -3.88144
H         -3.30285       -1.59993       -4.63019
H         -4.76101       -0.60453       -4.40499
H         -4.30414       -1.82546       -3.18014
C         -3.82297        0.78989       -2.07140
O         -2.79115        1.02924       -1.11037
C         -4.36817        2.12629       -2.54153
H         -5.10009        1.99180       -3.35274
H         -4.87371        2.63084       -1.70517
H         -3.56347        2.78429       -2.89287
C         -4.92038       -0.01555       -1.38657
H         -4.52987       -0.98169       -1.03559
H         -5.28218        0.55104       -0.51696
H         -5.77352       -0.19682       -2.05604
H          2.27225       -5.29545       -2.44778
H          2.90090       -2.93870        4.08693
C          2.05933        0.54820       -0.76083
C          2.42607        1.79524       -1.30892
N          3.04538       -0.31766       -0.49576
N          3.69210        2.13761       -1.52564
H          1.65998        2.53564       -1.56002
C          4.32365       -0.01198       -0.71268
C          4.62022        1.26111       -1.22043
C          5.35613       -1.03310       -0.33833
Cl         6.28682        1.73942       -1.45857
H          6.23266       -0.93769       -0.99587
H          4.90717       -2.02401       -0.50868
C          5.77905       -0.89533        1.12153
H          6.24517        0.08553        1.30073
H          6.50618       -1.67290        1.40184
H          4.90496       -0.98370        1.78539
