95
Int2_comp94_0_Sub10.log	Energy: -2170513.2063339
N          0.07934       -2.25336        1.17659
C          0.19233       -3.25526        0.28982
C          0.45586       -4.56299        0.70464
C          0.56396       -4.83347        2.06286
C          0.40079       -3.79234        2.97072
C          0.16772       -2.51240        2.47956
H          0.07013       -1.65374        3.14260
H          0.45958       -3.95889        4.04728
H          0.56673       -5.36671       -0.02221
C         -0.04497       -2.89513       -1.12009
N         -0.28654       -1.59199       -1.37810
C         -0.57139       -1.19935       -2.62566
C         -0.63543       -2.09796       -3.68350
C         -0.38589       -3.44437       -3.43872
C         -0.08614       -3.84348       -2.14346
H          0.10355       -4.89321       -1.92527
H         -0.88113       -1.73311       -4.68166
H         -0.73989       -0.12656       -2.75576
Ir        -0.12406       -0.20680        0.25744
H         -0.15861        0.79601        1.50448
B          1.83926       -0.23265       -0.59241
O          2.83780       -1.15776       -0.37218
C          3.69275       -1.20948       -1.52510
C          5.13007       -1.36366       -1.06265
H          5.42467       -0.55824       -0.37887
H          5.82038       -1.36553       -1.91962
H          5.24260       -2.31933       -0.53020
C          3.27504       -2.43441       -2.32890
H          3.93586       -2.60210       -3.19151
H          3.32216       -3.31817       -1.67603
H          2.24465       -2.33928       -2.69567
C          3.37448        0.14711       -2.25854
O          2.08331        0.48336       -1.74223
C          4.31925        1.27978       -1.88221
H          4.36085        1.40494       -0.79403
H          5.33596        1.11233       -2.26590
H          3.93725        2.21755       -2.30997
C          3.27123        0.04304       -3.77079
H          2.48424       -0.65860       -4.07513
H          3.01848        1.02979       -4.18511
H          4.22584       -0.27953       -4.21317
B         -0.33308        1.57103       -0.72064
O         -0.23690        2.81002       -0.12208
C         -0.23916        3.81203       -1.14192
C         -0.93172        5.05300       -0.61088
H         -1.92858        4.81824       -0.21505
H         -0.33554        5.48240        0.20749
H         -1.03247        5.81653       -1.39735
C          1.22199        4.10429       -1.46704
H          1.33031        4.91597       -2.20145
H          1.73258        4.39472       -0.53789
H          1.71627        3.19817       -1.84555
C         -0.99065        3.09058       -2.31275
O         -0.68760        1.71294       -2.05286
C         -0.49066        3.44421       -3.70141
H          0.56529        3.17161       -3.82466
H         -1.07493        2.89746       -4.45654
H         -0.60561        4.52085       -3.89888
C         -2.50472        3.24670       -2.23859
H         -2.88503        3.01643       -1.23397
H         -2.82314        4.26413       -2.50825
H         -2.96934        2.54085       -2.94244
B          1.43732        0.52197        1.43141
O          1.77905       -0.14914        2.60190
C          2.44271        0.78247        3.45988
C          1.37514        1.44365        4.32756
H          0.65401        2.00266        3.71320
H          0.82305        0.66278        4.87081
H          1.81258        2.13183        5.06510
C          3.43318        0.02964        4.32781
H          2.88940       -0.63964        5.01071
H          4.03179        0.72331        4.93752
H          4.10915       -0.58509        3.72030
C          3.07893        1.77493        2.42795
O          2.16820        1.69189        1.32498
C          3.14669        3.22010        2.88672
H          3.76778        3.31929        3.79012
H          3.59575        3.83512        2.09326
H          2.14699        3.62126        3.09494
C          4.44758        1.30902        1.94938
H          4.39710        0.27617        1.57668
H          4.78077        1.96117        1.13000
H          5.19830        1.36525        2.75042
H          0.76476       -5.85035        2.40689
H         -0.42705       -4.17910       -4.24557
C         -2.27041       -0.06279        0.52279
C         -3.28193       -1.02215        0.33902
C         -2.75740        1.20270        0.91339
Cl        -2.93038       -2.67310       -0.08383
C         -4.63803       -0.68267        0.50611
C         -4.12076        1.43325        1.03118
H         -2.07290        2.03170        1.09278
Cl        -5.88147       -1.87381        0.27184
N         -5.04768        0.52148        0.83398
Cl        -4.66516        3.04278        1.43007
