98
Int2_comp97_2_Sub2.log	Energy: -2093580.6131114
N          0.77194       -0.29044       -2.26298
C          1.32480       -1.48942       -2.50702
C          2.00527       -1.74832       -3.70025
C          2.06216       -0.75739       -4.67258
C          1.41301        0.45006       -4.43825
C          0.78043        0.64284       -3.21341
H          0.24563        1.56094       -2.96888
H          1.39882        1.24468       -5.18577
H          2.48425       -2.71196       -3.87054
C          1.07765       -2.52562       -1.48593
N          0.45117       -2.12311       -0.36409
C          0.04819       -3.02885        0.53744
C          0.27243       -4.38818        0.36515
C          0.96569       -4.81741       -0.76170
C          1.37094       -3.87582       -1.69763
H          1.88634       -4.19015       -2.60388
H         -0.07849       -5.08903        1.12365
H         -0.45633       -2.62385        1.41811
Ir         0.13181       -0.00621       -0.06657
H          0.07238        1.55633        0.23841
B         -1.82712       -0.74441       -0.52264
O         -2.38643       -0.83865       -1.78115
C         -3.29431       -1.94776       -1.79994
C         -4.48566       -1.59684       -2.67219
H         -4.97899       -0.67725       -2.33343
H         -5.22612       -2.41094       -2.67292
H         -4.14868       -1.43908       -3.70705
C         -2.53343       -3.12130       -2.40889
H         -3.17203       -4.00809       -2.53020
H         -2.15964       -2.82142       -3.39860
H         -1.66726       -3.39823       -1.79182
C         -3.62594       -2.14945       -0.27563
O         -2.49991       -1.54597        0.36828
C         -4.86546       -1.39589        0.18630
H         -4.81608       -0.34112       -0.10746
H         -5.78886       -1.83628       -0.21698
H         -4.91027       -1.43582        1.28423
C         -3.71509       -3.60012        0.16734
H         -2.77882       -4.14055       -0.02122
H         -3.91423       -3.63752        1.24818
H         -4.53428       -4.12164       -0.35050
B         -0.33758        0.05262        1.91240
O         -0.35564        1.19537        2.68520
C         -1.04550        0.90134        3.90202
C         -0.45546        1.73894        5.02068
H          0.63214        1.60890        5.08760
H         -0.65656        2.80251        4.82642
H         -0.90576        1.47664        5.99042
C         -2.51220        1.26085        3.68491
H         -3.10913        1.12060        4.59821
H         -2.57153        2.31518        3.38087
H         -2.94326        0.66301        2.86941
C         -0.81689       -0.64208        4.04328
O         -0.69950       -1.04600        2.67430
C         -1.96890       -1.40234        4.67423
H         -2.88359       -1.30133        4.07634
H         -1.71818       -2.47203        4.73385
H         -2.16772       -1.04265        5.69539
C          0.49272       -0.98547        4.74201
H          1.33446       -0.43877        4.29491
H          0.45062       -0.76097        5.81789
H          0.69312       -2.05969        4.61936
B         -1.34061        1.41296       -0.45794
O         -1.34586        2.10874       -1.66089
C         -2.12892        3.29455       -1.49026
C         -1.18076        4.42295       -1.09818
H         -0.67647        4.20954       -0.14576
H         -0.40334        4.51953       -1.86895
H         -1.70785        5.38413       -1.01249
C         -2.81190        3.61952       -2.80606
H         -2.05448        3.89689       -3.55399
H         -3.50249        4.46895       -2.69312
H         -3.36872        2.75652       -3.19227
C         -3.09720        2.88230       -0.32627
O         -2.33703        1.89074        0.37338
C         -3.44040        3.99905        0.64300
H         -3.94982        4.82706        0.12689
H         -4.11513        3.61429        1.42153
H         -2.54185        4.38753        1.13829
C         -4.37032        2.21873       -0.83387
H         -4.12918        1.39816       -1.52407
H         -4.91856        1.80489        0.02415
H         -5.02758        2.93534       -1.34664
H          2.59466       -0.93596       -5.60934
H          1.18004       -5.87658       -0.91975
C          2.25079        0.26724        0.36752
C          3.11395       -0.70465        0.92650
C          2.99716        1.41195       -0.02350
N          4.43359       -0.72562        0.89344
Cl         2.47863       -2.02752        1.88235
C          2.33832        2.73140       -0.37818
C          4.39429        1.44276       -0.03768
C          5.06146        0.29973        0.37633
F          1.59387        2.67115       -1.48803
F          1.55115        3.17178        0.60845
F          3.24103        3.69760       -0.59533
H          4.94598        2.32581       -0.35227
Cl         6.79420        0.22269        0.26537
