103
Int2_comp36_6_Sub15.log	Energy: -1677879.9089719
N         -0.38911       -2.34543        0.84249
C         -0.55260       -3.12383       -0.24048
C         -0.37671       -4.50734       -0.17205
C         -0.07377       -5.09133        1.05129
C          0.03290       -4.27872        2.17592
C         -0.12304       -2.90620        2.02013
H         -0.01547       -2.22212        2.86062
H          0.24544       -4.69360        3.16240
H         -0.47226       -5.12311       -1.06587
C         -1.01392       -2.43298       -1.45808
N         -1.02989       -1.08455       -1.41982
C         -1.58447       -0.40052       -2.42435
C         -2.12462       -1.02623       -3.54021
C         -2.07716       -2.41410       -3.61714
C         -1.51907       -3.12231       -2.56196
H         -1.51075       -4.21127       -2.57556
H         -2.56841       -0.42204       -4.33237
H         -1.55338        0.68413       -2.32656
Ir        -0.22301       -0.15308        0.32677
H          0.00974        0.55425        1.74436
B          1.64495       -0.54269       -0.66723
O          1.74479       -1.73738       -1.36557
C          2.56459       -1.50883       -2.51607
C          3.25925       -2.80417       -2.88853
H          3.79819       -3.23143       -2.03339
H          3.96856       -2.64965       -3.71583
H          2.50887       -3.53889       -3.21595
C          1.64656       -1.05288       -3.64671
H          2.19624       -0.92242       -4.59021
H          0.86839       -1.81371       -3.80318
H          1.15077       -0.10470       -3.39103
C          3.50045       -0.36179       -2.01378
O          2.66905        0.30198       -1.05170
C          4.73557       -0.89039       -1.29734
H          4.45839       -1.61125       -0.51457
H          5.42700       -1.38031       -1.99810
H          5.26462       -0.05237       -0.82427
C          3.90605        0.64413       -3.07587
H          3.02958        1.14507       -3.50522
H          4.55057        1.41420       -2.62724
H          4.46966        0.15649       -3.88605
B          0.10288        1.70183       -0.44546
O          0.38571        2.85613        0.25360
C          0.78223        3.87212       -0.66556
C          0.30740        5.21707       -0.14622
H         -0.77180        5.20982        0.05704
H          0.83018        5.45043        0.79286
H          0.52528        6.01966       -0.86766
C          2.30529        3.83097       -0.74021
H          2.71021        4.62040       -1.39100
H          2.70297        3.96910        0.27522
H          2.64613        2.84640       -1.09076
C          0.09014        3.40134       -1.98876
O          0.05090        1.98034       -1.81118
C          0.86001        3.71715       -3.25722
H          1.85612        3.25689       -3.24279
H          0.31457        3.32724       -4.12971
H          0.97630        4.80408       -3.38659
C         -1.35306        3.88169       -2.10601
H         -1.92578        3.65101       -1.19532
H         -1.41180        4.96298       -2.29838
H         -1.83439        3.36050       -2.94733
B          1.50067        0.06287        1.49457
O          2.21309        1.21414        1.77421
C          3.25145        0.92222        2.70288
C          4.55108        0.77257        1.92496
H          4.49928       -0.08563        1.24633
H          4.69860        1.67383        1.31296
H          5.41767        0.65054        2.59137
C          3.36417        2.08054        3.67956
H          3.70599        2.97707        3.14204
H          4.09227        1.85975        4.47529
H          2.39495        2.31565        4.13717
C          2.76356       -0.42837        3.33730
O          1.97578       -0.98716        2.28335
C          3.86684       -1.40568        3.69784
H          4.54232       -0.97683        4.45360
H          3.42627       -2.32357        4.11452
H          4.45657       -1.68562        2.81586
C          1.83770       -0.21750        4.53235
H          1.02297        0.47845        4.28391
H          1.38761       -1.18206        4.81103
H          2.37601        0.17300        5.40799
H          0.06875       -6.17169        1.12562
H         -2.48638       -2.94292       -4.48074
C         -2.25870        0.48000        0.74626
C         -3.44715       -0.25160        0.65529
C         -2.42290        1.83895        1.08065
C         -4.73958        0.31125        0.82182
Cl        -3.45256       -2.00050        0.37665
C         -3.67173        2.44371        1.25298
H         -1.54231        2.46999        1.20382
C         -4.83271        1.67787        1.11520
N         -5.86627       -0.46161        0.68489
N         -3.74815        3.81184        1.49738
H         -5.81121        2.14511        1.23788
H         -4.58952        4.11878        1.96991
H         -2.91543        4.19990        1.92455
H         -5.69763       -1.45786        0.66777
C         -7.17198       -0.00390        1.03940
H         -7.89115       -0.82307        0.90165
H         -7.50240        0.83113        0.39618
H         -7.24707        0.34288        2.09012
