112
Int2_comp152_9_Sub23.log	Energy: -1510546.7754167
N         -0.75611        2.28586        1.22764
C         -1.12502        3.26914        0.38900
C         -1.59337        4.49561        0.87065
C         -1.64676        4.70812        2.24180
C         -1.22429        3.69380        3.09665
C         -0.79212        2.49399        2.54374
H         -0.48260        1.65439        3.16482
H         -1.23382        3.82021        4.18027
H         -1.90950        5.27986        0.18373
C         -0.95119        2.98352       -1.04584
N         -0.51578        1.74547       -1.36568
C         -0.30129        1.42600       -2.65038
C         -0.49620        2.33897       -3.67847
C         -0.93513        3.62346       -3.36734
C         -1.16669        3.94404       -2.03754
H         -1.50529        4.94298       -1.76693
H         -0.29809        2.03551       -4.70739
H          0.03698        0.40110       -2.82985
Ir        -0.27718        0.32144        0.22788
H          0.03218       -0.67151        1.44068
B         -2.27597       -0.00720       -0.47280
O         -3.40943        0.72117       -0.16999
C         -4.33856        0.62392       -1.25927
C         -5.74359        0.50928       -0.69627
H         -5.83601       -0.34019       -0.00848
H         -6.48224        0.38882       -1.50310
H         -5.99059        1.42502       -0.13949
C         -4.20935        1.91048       -2.06529
H         -4.94722        1.96009       -2.87901
H         -4.37243        2.76568       -1.39332
H         -3.20652        2.00888       -2.50095
C         -3.83212       -0.64674       -2.03926
O         -2.46886       -0.74540       -1.62003
C         -4.52652       -1.93547       -1.62101
H         -4.47202       -2.07060       -0.53454
H         -5.58004       -1.95675       -1.93537
H         -4.00726       -2.78483       -2.08722
C         -3.85798       -0.51553       -3.55283
H         -3.23548        0.32037       -3.89669
H         -3.45984       -1.43656       -4.00281
H         -4.88437       -0.36992       -3.92227
B          0.20530       -1.35395       -0.81943
O          0.39231       -2.60626       -0.27107
C          0.52747       -3.55285       -1.33223
C          1.47605       -4.65297       -0.89521
H          2.43315       -4.24083       -0.54953
H          1.02706       -5.21476       -0.06301
H          1.67067       -5.35753       -1.71838
C         -0.86607       -4.11367       -1.59847
H         -0.85707       -4.90817       -2.35934
H         -1.25932       -4.52602       -0.65827
H         -1.54495       -3.30888       -1.91539
C          1.05534       -2.65894       -2.50434
O          0.47869       -1.38762       -2.18070
C          0.58058       -3.07483       -3.88436
H         -0.51389       -3.03436       -3.95760
H          0.99941       -2.39507       -4.64145
H          0.91529       -4.09562       -4.12433
C          2.56989       -2.48784       -2.48900
H          2.92803       -2.19209       -1.49290
H          3.08945       -3.40749       -2.79541
H          2.84324       -1.68575       -3.19002
B         -1.59665       -0.69004        1.48114
O         -1.97463       -0.10653        2.69034
C         -2.37037       -1.15536        3.57556
C         -1.12804       -1.60027        4.34322
H         -0.36307       -2.00084        3.66186
H         -0.69751       -0.73006        4.86017
H         -1.36142       -2.36686        5.09620
C         -3.41608       -0.61947        4.53531
H         -2.96068        0.13789        5.19044
H         -3.81730       -1.42244        5.17223
H         -4.24531       -0.14408        3.99646
C         -2.88088       -2.24677        2.57427
O         -2.09321       -1.98242        1.40899
C         -2.63300       -3.68023        3.00780
H         -3.15071       -3.90292        3.95349
H         -3.01520       -4.36642        2.23799
H         -1.56146       -3.88091        3.13128
C         -4.34736       -2.05297        2.21039
H         -4.52693       -1.02661        1.86003
H         -4.60932       -2.74973        1.40187
H         -5.00919       -2.26199        3.06301
H         -2.00818        5.65974        2.63743
H         -1.09496        4.36807       -4.14992
C          1.88648        0.50641        0.31171
C          2.73542        1.60241       -0.08727
C          2.57997       -0.60225        0.78577
N          4.05560        1.54648       -0.07839
C          2.19316        2.93322       -0.52781
C          3.99143       -0.68980        0.80662
H          2.03331       -1.48692        1.12211
C          4.70078        0.43403        0.32555
H          3.01226        3.66303       -0.53685
H          1.40486        3.28930        0.14744
H          1.77357        2.88643       -1.54423
C          4.71468       -1.82575        1.24608
C          6.13812        0.42918        0.26473
C          6.08739       -1.81971        1.16445
H          4.17408       -2.69674        1.62539
C          6.82647       -0.71615        0.66562
N          6.72483        1.57329       -0.24910
H          6.64799       -2.70693        1.47442
C          8.31414       -0.83871        0.50385
H          8.87933       -0.31171        1.29117
H          8.63577       -0.42063       -0.46326
H          8.62050       -1.89419        0.53661
H          5.96180        2.20853       -0.48931
C          7.80255        2.24575        0.43558
H          7.94221        3.23718       -0.01933
H          8.76028        1.71434        0.33951
H          7.61160        2.39366        1.51747
