102
Int2_comp34_6_Sub22.log	Energy: -1438373.8863898
N          0.68327       -2.15701       -1.00012
C          1.06415       -2.99916       -0.02778
C          1.33350       -4.34389       -0.29916
C          1.22702       -4.80563       -1.60440
C          0.85586       -3.91295       -2.60558
C          0.58726       -2.59486       -2.25450
H          0.25661       -1.85901       -2.98712
H          0.76687       -4.22736       -3.64653
H          1.63221       -5.02450        0.49722
C          1.21783       -2.40572        1.31273
N          0.96009       -1.08664        1.42063
C          1.13050       -0.46654        2.59471
C          1.56795       -1.14178        3.72756
C          1.82736       -2.50633        3.63920
C          1.64831       -3.14199        2.41861
H          1.84765       -4.20827        2.32330
H          1.69680       -0.59344        4.66178
H          0.89672        0.60215        2.60092
Ir         0.24489       -0.04985       -0.32955
H         -0.08236        0.73866       -1.67942
B         -1.56214       -0.55737        0.70641
O         -2.22038       -1.77184        0.69902
C         -2.91115       -1.94054        1.94410
C         -4.24795       -2.60812        1.67615
H         -4.84504       -2.04079        0.95142
H         -4.82969       -2.71268        2.60450
H         -4.07866       -3.61306        1.26260
C         -2.04458       -2.84785        2.80949
H         -2.53575       -3.09893        3.76075
H         -1.85120       -3.78005        2.25901
H         -1.07628       -2.38018        3.03189
C         -3.00433       -0.46835        2.49402
O         -1.94265        0.19007        1.80026
C         -4.29773        0.24134        2.11736
H         -4.47116        0.18534        1.03637
H         -5.16710       -0.17880        2.64368
H         -4.20854        1.30388        2.38537
C         -2.75755       -0.33058        3.98710
H         -1.76187       -0.69764        4.26713
H         -2.81355        0.73157        4.26653
H         -3.51487       -0.87843        4.56818
B          0.00893        1.83366        0.38972
O         -0.42470        2.91918       -0.34905
C         -0.70816        3.98918        0.55283
C         -0.44314        5.31057       -0.14279
H          0.57089        5.34552       -0.56170
H         -1.15626        5.43863       -0.97029
H         -0.56949        6.15534        0.55186
C         -2.18095        3.86631        0.93404
H         -2.51516        4.69574        1.57504
H         -2.77883        3.86517        0.01166
H         -2.36439        2.91008        1.44540
C          0.25126        3.66884        1.74595
O          0.32037        2.24058        1.68229
C         -0.27231        4.07491        3.11106
H         -1.21019        3.55531        3.34585
H          0.46503        3.81411        3.88512
H         -0.44526        5.16100        3.16008
C          1.66379        4.20079        1.53193
H          2.04897        3.90632        0.54495
H          1.70939        5.29590        1.62523
H          2.32661        3.76023        2.29109
B         -1.54817        0.02586       -1.38317
O         -1.76660       -0.87021       -2.43112
C         -2.71485       -0.27914       -3.32018
C         -1.93267        0.52086       -4.35904
H         -1.35939        1.33134       -3.88532
H         -1.21900       -0.14891       -4.86103
H         -2.59076        0.95804       -5.12395
C         -3.50920       -1.38134       -3.99570
H         -2.84506       -1.96632       -4.64910
H         -4.31603       -0.96398       -4.61732
H         -3.94551       -2.06709       -3.25855
C         -3.53722        0.63749       -2.35218
O         -2.57259        0.96077       -1.34726
C         -4.04373        1.92896       -2.96881
H         -4.72290        1.72603       -3.81117
H         -4.59868        2.50280       -2.21219
H         -3.21458        2.55517       -3.32121
C         -4.68388       -0.11081       -1.68369
H         -4.31962       -1.03252       -1.20772
H         -5.12323        0.53271       -0.90856
H         -5.47706       -0.36694       -2.40069
H          1.43708       -5.85199       -1.83674
H          2.16546       -3.07158        4.51047
C          2.23630        0.57762       -0.77043
C          3.39974       -0.10688       -0.45075
C          2.50745        1.79097       -1.45625
C          4.68772        0.32899       -0.75854
O          3.52173       -1.34432        0.16030
C          3.79022        2.23601       -1.77302
H          1.66332        2.42274       -1.74360
C          4.94595        1.50998       -1.43129
O          5.60619       -0.59750       -0.33781
C          4.87767       -1.46778        0.49679
H          3.91004        3.18709       -2.30073
C          6.33833        1.94598       -1.76614
H          5.03056       -1.17764        1.56011
H          5.21107       -2.50498        0.33583
H          6.80425        1.27485       -2.50678
H          6.98842        1.93457       -0.87697
H          6.34270        2.96284       -2.18328
