101
Int2_comp63_0_Sub24.log	Energy: -1378113.1438559
N         -0.23850        2.13449        1.48718
C         -0.13114        3.29110        0.81459
C         -0.22735        4.52251        1.47214
C         -0.43500        4.54156        2.84456
C         -0.55725        3.33216        3.52444
C         -0.45695        2.14882        2.80182
H         -0.57912        1.16769        3.26485
H         -0.72954        3.29884        4.60137
H         -0.13295        5.45766        0.92120
C          0.06540        3.17072       -0.64170
N          0.19165        1.92016       -1.13241
C          0.34627        1.72770       -2.44895
C          0.37316        2.78625       -3.34770
C          0.24406        4.08505       -2.86238
C          0.08973        4.27723       -1.49709
H         -0.01651        5.28344       -1.09447
H          0.50110        2.58258       -4.41166
H          0.46313        0.68687       -2.76068
Ir         0.21700        0.30055        0.26984
H          0.47467       -0.81350        1.38142
B         -1.74980        0.10822       -0.55957
O         -2.90741        0.75018       -0.16141
C         -3.73656        0.96143       -1.31077
C         -5.19046        0.79675       -0.90768
H         -5.37112       -0.17973       -0.44089
H         -5.85511        0.89763       -1.77914
H         -5.45977        1.57521       -0.17900
C         -3.48391        2.39233       -1.77551
H         -4.13354        2.67299       -2.61721
H         -3.68423        3.07436       -0.93651
H         -2.43745        2.53254       -2.08093
C         -3.20343       -0.11757       -2.32147
O         -1.87042       -0.34223       -1.85656
C         -3.93984       -1.44754       -2.23254
H         -3.97992       -1.80120       -1.19525
H         -4.96357       -1.38055       -2.62879
H         -3.38552       -2.19466       -2.81860
C         -3.13967        0.34300       -3.76758
H         -2.48743        1.21814       -3.88392
H         -2.72989       -0.46668       -4.38873
H         -4.14132        0.59453       -4.14831
B          0.91291       -1.20536       -0.89386
O          1.35273       -2.43012       -0.41593
C          1.64866       -3.26959       -1.53276
C          2.78983       -4.19935       -1.16743
H          3.65302       -3.63871       -0.78579
H          2.46185       -4.89501       -0.38088
H          3.10900       -4.79383       -2.03742
C          0.38246       -4.06194       -1.84374
H          0.53930       -4.79643       -2.64775
H          0.07147       -4.59417       -0.93339
H         -0.43644       -3.38388       -2.12551
C          1.98603       -2.21713       -2.63675
O          1.12630       -1.13481       -2.26504
C          1.65806       -2.64776       -4.05324
H          0.58640       -2.85595       -4.16754
H          1.92638       -1.84570       -4.75704
H          2.22690       -3.54803       -4.33235
C          3.41989       -1.70459       -2.54245
H          3.65830       -1.38840       -1.51602
H          4.14992       -2.46014       -2.86876
H          3.52220       -0.81951       -3.18675
B         -1.14599       -0.94582        1.23174
O         -1.65510       -0.61046        2.49098
C         -2.04010       -1.82222        3.14170
C         -0.82798       -2.32953        3.91951
H          0.00692       -2.56187        3.24188
H         -0.49400       -1.54236        4.61158
H         -1.06165       -3.22882        4.50768
C         -3.18932       -1.53125        4.08833
H         -2.83988       -0.88393        4.90638
H         -3.58007       -2.45928        4.53299
H         -4.00680       -1.01137        3.57308
C         -2.39730       -2.74131        1.92524
O         -1.53524       -2.23751        0.90266
C         -2.09916       -4.21601        2.12723
H         -2.67735       -4.62573        2.96976
H         -2.37477       -4.77266        1.21958
H         -1.03083       -4.38569        2.31138
C         -3.83648       -2.55273        1.46077
H         -4.05182       -1.48759        1.29294
H         -3.97359       -3.08964        0.51149
H         -4.55745       -2.95481        2.18708
H         -0.50381        5.49268        3.37699
H          0.26312        4.94177       -3.53951
C          2.28946        0.71193        0.40451
C          3.06223        1.62536       -0.30142
N          3.18867       -0.00085        1.19622
C          4.43564        1.47812        0.06218
H          2.69579        2.33207       -1.04306
C          4.46040        0.46154        0.99132
C          2.87523       -1.05108        2.13095
H          5.28592        2.04493       -0.30948
O          5.46431       -0.10249        1.69600
H          2.21121       -0.68307        2.92909
H          3.80895       -1.40108        2.58722
H          2.38486       -1.88962        1.61559
C          6.73668        0.40864        1.43152
H          7.01446        0.27198        0.37027
H          6.79683        1.48695        1.66750
H          7.44709       -0.13956        2.06435
