100
Int2_comp167_7_Sub16.log	Energy: -1615991.8515036
N          0.19539        1.15411       -2.12831
C          0.67286        0.41093       -3.13934
C          1.02645        0.98775       -4.36280
C          0.85631        2.35547       -4.53867
C          0.32068        3.10460       -3.49676
C          0.00350        2.46129       -2.30424
H         -0.44172        2.98502       -1.45769
H          0.15241        4.17818       -3.59334
H          1.43252        0.37966       -5.17038
C          0.75276       -1.03970       -2.88567
N          0.41397       -1.45454       -1.64798
C          0.40015       -2.76383       -1.36343
C          0.73718       -3.72769       -2.30520
C          1.10337       -3.31841       -3.58356
C          1.10876       -1.96116       -3.87469
H          1.37794       -1.61706       -4.87217
H          0.71385       -4.78164       -2.02491
H          0.12037       -3.01916       -0.33819
Ir        -0.01618        0.04470       -0.15706
H         -0.07071        1.18577        0.95954
B         -1.96866       -0.70402       -0.59967
O         -2.82970       -0.29820       -1.60001
C         -3.60448       -1.42551       -2.02828
C         -5.00968       -0.96095       -2.36403
H         -5.47659       -0.44221       -1.51750
H         -5.64768       -1.81107       -2.64953
H         -4.97194       -0.26091       -3.21135
C         -2.92473       -1.97132       -3.28026
H         -3.49011       -2.80173       -3.72733
H         -2.84976       -1.16113       -4.01993
H         -1.90640       -2.32165       -3.06047
C         -3.50598       -2.39931       -0.79804
O         -2.29815       -1.97018       -0.16282
C         -4.63273       -2.22059        0.21013
H         -4.73115       -1.16809        0.50124
H         -5.59668       -2.57659       -0.18148
H         -4.39022       -2.79572        1.11529
C         -3.36516       -3.86777       -1.16040
H         -2.47067       -4.05038       -1.76972
H         -3.27278       -4.46197       -0.23961
H         -4.24766       -4.22602       -1.71194
B          0.00139       -1.06195        1.54366
O         -0.18131       -0.58798        2.82528
C         -0.35395       -1.71087        3.69143
C          0.16639       -1.36080        5.07187
H          1.19809       -0.98923        5.02756
H         -0.45924       -0.56929        5.50964
H          0.13091       -2.23489        5.74031
C         -1.85033       -2.00859        3.73818
H         -2.09085       -2.81556        4.44630
H         -2.37624       -1.09428        4.04710
H         -2.22001       -2.27824        2.73784
C          0.45552       -2.81901        2.94239
O          0.27122       -2.42644        1.57554
C         -0.07000       -4.23007        3.12356
H         -1.09973       -4.32117        2.75426
H          0.55942       -4.93599        2.56109
H         -0.04590       -4.52544        4.18371
C          1.94995       -2.75781        3.23667
H          2.32784       -1.73099        3.12877
H          2.18202       -3.11833        4.24962
H          2.48906       -3.38529        2.51190
B         -1.65639        1.13985        0.51609
O         -1.94206        2.38604       -0.04007
C         -2.73212        3.12025        0.89868
C         -1.77742        3.93310        1.76747
H         -1.09120        3.27941        2.32508
H         -1.16799        4.57837        1.11818
H         -2.31696        4.57200        2.48159
C         -3.66379        4.04473        0.13697
H         -3.07441        4.81273       -0.38553
H         -4.35744        4.55737        0.82072
H         -4.24518        3.49574       -0.61450
C         -3.44178        1.97123        1.69401
O         -2.50449        0.89675        1.58373
C         -3.67158        2.26085        3.16642
H         -4.31969        3.14047        3.30080
H         -4.16483        1.39731        3.63625
H         -2.72362        2.43172        3.69164
C         -4.74234        1.52673        1.03620
H         -4.57694        1.28462       -0.02334
H         -5.10625        0.62459        1.54799
H         -5.52251        2.29773        1.11094
H          1.13225        2.82675       -5.48454
H          1.37812       -4.04659       -4.34974
C          2.10742        0.12934        0.13223
C          2.84189       -1.07228        0.11301
C          2.89105        1.26931        0.36049
C          4.21926       -1.16576        0.29528
H          2.33248       -2.03036       -0.00578
C          4.27838        1.23398        0.53709
I          2.04540        3.21255        0.53765
C          4.93437        0.01596        0.50431
O          4.80129       -2.39445        0.32231
H          4.86310        2.13658        0.71994
F          6.25932       -0.02559        0.70019
C          5.80788       -2.63249       -0.63152
H          5.42650       -2.48502       -1.65848
H          6.68593       -1.98427       -0.48207
H          6.11599       -3.68061       -0.51611
