99
Int2_comp43_5_Sub6.log	Energy: -1546030.5689852
N         -0.07793       -2.37091       -1.12811
C         -0.03320       -3.28128       -0.13959
C         -0.59010       -4.55277       -0.29701
C         -1.16512       -4.89264       -1.51465
C         -1.15616       -3.95870       -2.54717
C         -0.60842       -2.70459       -2.30455
H         -0.60681       -1.92565       -3.06569
H         -1.57720       -4.18759       -3.52732
H         -0.58085       -5.26760        0.52539
C          0.70693       -2.87045        1.06583
N          1.06455       -1.57228        1.14081
C          1.85736       -1.16082        2.13538
C          2.31856       -2.02245        3.12195
C          1.93298       -3.35912        3.07903
C          1.12059       -3.78529        2.03748
H          0.83763       -4.83393        1.95544
H          2.96608       -1.63784        3.91092
H          2.09016       -0.09602        2.13848
Ir         0.38220       -0.26824       -0.41672
H          0.22060        0.63546       -1.72459
B         -1.42646       -0.25794        0.75900
O         -2.13426        0.77644        1.33955
C         -3.01626        0.25113        2.34033
C         -3.02067        1.20173        3.52395
H         -2.00169        1.40258        3.87733
H         -3.61292        0.79285        4.35692
H         -3.46951        2.16003        3.22411
C         -4.41396        0.15390        1.74432
H         -5.14250       -0.20517        2.48561
H         -4.73129        1.14917        1.40562
H         -4.42748       -0.52580        0.88005
C         -2.38819       -1.15254        2.62370
O         -1.77782       -1.45683        1.36501
C         -1.27548       -1.08682        3.66570
H         -0.56684       -0.27910        3.43015
H         -1.67378       -0.92423        4.67771
H         -0.72481       -2.03856        3.66084
C         -3.37337       -2.25179        2.97039
H         -4.09028       -2.42019        2.15679
H         -2.82713       -3.19164        3.13920
H         -3.92838       -2.01069        3.88975
B          0.67995        1.51668        0.50305
O          0.71358        2.75986       -0.09048
C          0.66113        3.75492        0.93168
C          1.44218        4.97338        0.47652
H          2.46236        4.70604        0.17153
H          0.93854        5.42735       -0.38926
H          1.49699        5.72891        1.27546
C         -0.80965        4.10509        1.13683
H         -0.94312        4.91382        1.87092
H         -1.22334        4.42926        0.17156
H         -1.37829        3.21813        1.45134
C          1.28170        2.99540        2.15095
O          0.90370        1.64102        1.87505
C          0.72419        3.39690        3.50312
H         -0.35972        3.23196        3.54983
H          1.19705        2.79590        4.29437
H          0.92853        4.45785        3.71367
C          2.80619        3.04270        2.16251
H          3.21453        2.73529        1.18805
H          3.18640        4.04460        2.41001
H          3.17973        2.33966        2.92238
B         -1.33428        0.50248       -1.33132
O         -2.12937       -0.28912       -2.16419
C         -2.81637        0.57725       -3.07126
C         -1.95563        0.69537       -4.32622
H         -0.97130        1.12708       -4.09263
H         -1.79543       -0.30873       -4.74677
H         -2.43427        1.31505       -5.09814
C         -4.16056       -0.03660       -3.41549
H         -4.00813       -0.97549       -3.96828
H         -4.75250        0.64074       -4.04962
H         -4.73776       -0.26775       -2.51136
C         -2.88544        1.91718       -2.25662
O         -1.73882        1.82200       -1.41844
C         -2.76715        3.17866       -3.09483
H         -3.58488        3.24607       -3.82886
H         -2.82420        4.05873       -2.43772
H         -1.80696        3.21990       -3.62432
C         -4.11592        2.00048       -1.36438
H         -4.23875        1.07794       -0.78622
H         -3.97627        2.82588       -0.65182
H         -5.03258        2.18404       -1.94401
H         -1.60958       -5.88006       -1.65723
H          2.27292       -4.06645        3.83857
C          2.43576       -0.16512       -1.02246
C          3.38848       -1.16233       -1.08136
C          3.01997        1.09284       -1.41749
S          4.94774       -0.55311       -1.58267
C          3.30836       -2.63067       -0.80652
C          4.35059        1.05929       -1.74077
H          2.44804        2.02191       -1.45874
C          5.22595        2.18430       -2.18172
H          5.63745        2.02077       -3.19151
H          6.08118        2.33663       -1.50277
H          4.64370        3.11709       -2.20365
H          2.35930       -3.04251       -1.17224
H          3.39259       -2.86811        0.26805
H          4.11770       -3.17359       -1.31718
