102
Int2_comp63_3_Sub23.log	Energy: -1365654.9360438
N          0.09027        2.24889        1.26728
C          0.15157        3.33705        0.48400
C          0.19637        4.62316        1.03322
C          0.17936        4.76986        2.41354
C          0.10422        3.63065        3.21099
C          0.05702        2.38660        2.59247
H         -0.03871        1.45656        3.15560
H          0.08084        3.69780        4.29981
H          0.25355        5.50178        0.39160
C          0.15072        3.08375       -0.96857
N          0.17097        1.79150       -1.35623
C          0.15749        1.48184       -2.65943
C          0.11221        2.45821       -3.64617
C          0.08654        3.79778       -3.26758
C          0.10699        4.11140       -1.91616
H          0.08500        5.15180       -1.59535
H          0.10358        2.15939       -4.69523
H          0.19873        0.41423       -2.88894
Ir         0.29046        0.29454        0.17366
H          0.62074       -0.73813        1.34329
B         -1.76896        0.15284       -0.40466
O         -2.83561        0.90342        0.05267
C         -3.78719        1.05049       -1.00858
C         -5.18757        1.01209       -0.42455
H         -5.35664        0.09760        0.15776
H         -5.94756        1.06814       -1.21867
H         -5.32889        1.87175        0.24666
C         -3.52632        2.41228       -1.64465
H         -4.25930        2.64746       -2.42994
H         -3.59196        3.18298       -0.86303
H         -2.51929        2.46126       -2.08203
C         -3.43271       -0.15153       -1.95744
O         -2.06680       -0.41275       -1.62626
C         -4.21933       -1.41891       -1.65072
H         -4.15302       -1.66991       -0.58526
H         -5.27839       -1.32630       -1.93237
H         -3.77789       -2.25130       -2.21748
C         -3.51803        0.16364       -3.44101
H         -2.84191        0.98230       -3.71925
H         -3.22500       -0.72528       -4.01834
H         -4.54407        0.43780       -3.73011
B          0.73827       -1.34694       -0.92654
O          1.10287       -2.57679       -0.40177
C          1.19569       -3.51387       -1.47567
C          2.26236       -4.54123       -1.14922
H          3.21487       -4.05918       -0.89349
H          1.94321       -5.14210       -0.28485
H          2.42627       -5.22357       -1.99759
C         -0.17236       -4.17630       -1.60885
H         -0.17531       -4.97385       -2.36677
H         -0.44603       -4.60998       -0.63642
H         -0.93787       -3.42882       -1.86427
C          1.52953       -2.57791       -2.68058
O          0.82630       -1.38667       -2.31298
C          1.02150       -3.05960       -4.02568
H         -0.07195       -3.15601       -4.02635
H          1.30080       -2.33860       -4.80851
H          1.46419       -4.03290       -4.28769
C          3.01068       -2.22032       -2.75501
H          3.38020       -1.87266       -1.77884
H          3.62305       -3.06933       -3.09340
H          3.13907       -1.39132       -3.46575
B         -1.01348       -0.76368        1.40511
O         -1.33918       -0.27950        2.67656
C         -1.71321       -1.39599        3.48487
C         -0.44673       -1.91744        4.16007
H          0.28228       -2.26875        3.41488
H          0.01755       -1.09758        4.72790
H         -0.65961       -2.74130        4.85663
C         -2.71508       -0.93732        4.52766
H         -2.22714       -0.24537        5.23014
H         -3.10306       -1.79013        5.10542
H         -3.55730       -0.40840        4.06406
C         -2.27513       -2.39328        2.41640
O         -1.51952       -2.04763        1.25367
C         -2.04336       -3.86128        2.72590
H         -2.53481       -4.15048        3.66765
H         -2.46390       -4.47646        1.91698
H         -0.97253       -4.08990        2.79697
C         -3.74729       -2.14458        2.11068
H         -3.91707       -1.08698        1.86229
H         -4.03558       -2.75648        1.24426
H         -4.39391       -2.42374        2.95503
H          0.22236        5.76512        2.86126
H          0.05144        4.59233       -4.01608
C          2.38437        0.58837        0.04346
C          3.10444        1.43776       -0.79655
N          3.33325       -0.09853        0.77983
C          4.49198        1.27813       -0.54215
H          2.67987        2.10622       -1.54287
C          4.60798        0.31658        0.44110
C          3.08745       -1.11094        1.77358
H          5.32162        1.80169       -1.01613
N          5.73184       -0.22778        1.08372
H          2.42812       -1.89139        1.36928
H          2.62632       -0.68620        2.68092
H          4.05592       -1.55573        2.03858
H          6.47898       -0.38737        0.41613
C          6.21426        0.50075        2.24074
H          7.09416       -0.00948        2.66395
H          5.43650        0.51507        3.02031
H          6.48590        1.55461        2.02853
