101
Int2_comp173_4_Sub23.log	Energy: -1705409.6299170
N         -0.45283        2.31681        1.15446
C         -0.71228        3.30382        0.28290
C         -1.09816        4.57393        0.72116
C         -1.18929        4.82135        2.08459
C         -0.89123        3.79475        2.97542
C         -0.53193        2.55317        2.46300
H         -0.32530        1.70113        3.11014
H         -0.94095        3.94334        4.05516
H         -1.31872        5.36664        0.00733
C         -0.53010        2.96947       -1.14138
N         -0.14690        1.70636       -1.41983
C          0.06826        1.33749       -2.68885
C         -0.08989        2.22127       -3.74923
C         -0.48658        3.52804       -3.48274
C         -0.70752        3.90297       -2.16483
H         -1.01371        4.92129       -1.93061
H          0.09995        1.87632       -4.76656
H          0.36736        0.29505       -2.83238
Ir         0.04798        0.32479        0.22311
H          0.39045       -0.62130        1.46432
B         -1.94198       -0.03082       -0.47813
O         -3.07865        0.69444       -0.17889
C         -3.99541        0.60488       -1.27812
C         -5.40773        0.49998       -0.73160
H         -5.51303       -0.34783       -0.04335
H         -6.13789        0.38264       -1.54662
H         -5.65547        1.41794       -0.17885
C         -3.84607        1.89171       -2.08114
H         -4.57139        1.94756       -2.90572
H         -4.01289        2.74695       -1.41016
H         -2.83565        1.98448       -2.50108
C         -3.48875       -0.66854       -2.05300
O         -2.13011       -0.77385       -1.62263
C         -4.19306       -1.95364       -1.63987
H         -4.15851       -2.08350       -0.55194
H         -5.24120       -1.97484       -1.97193
H         -3.66665       -2.80567       -2.09346
C         -3.50198       -0.53833       -3.56688
H         -2.87350        0.29507       -3.90592
H         -3.10314       -1.46113       -4.01260
H         -4.52485       -0.38899       -3.94467
B          0.57302       -1.37971       -0.75267
O          0.86909       -2.57918       -0.13328
C          0.98939       -3.59142       -1.13366
C          2.02517       -4.60612       -0.68714
H          2.97461       -4.12029       -0.42618
H          1.65916       -5.13453        0.20538
H          2.21208       -5.35298       -1.47406
C         -0.38471       -4.24151       -1.26519
H         -0.37953       -5.08593       -1.97030
H         -0.69192       -4.60661       -0.27493
H         -1.13010       -3.49991       -1.58763
C          1.39024       -2.75833       -2.39809
O          0.77738       -1.49379       -2.12082
C          0.83992       -3.28943       -3.70918
H         -0.25758       -3.29720       -3.70457
H          1.17286       -2.64755       -4.53856
H          1.20260       -4.31025       -3.90425
C          2.89247       -2.52398       -2.50813
H          3.31221       -2.15213       -1.56323
H          3.42896       -3.44003       -2.79568
H          3.07597       -1.75967       -3.27748
B         -1.25362       -0.70482        1.47849
O         -1.65972       -0.12596        2.68117
C         -2.03607       -1.18087        3.56774
C         -0.79050       -1.58584        4.35204
H         -0.00701       -1.96852        3.68149
H         -0.39092       -0.70048        4.86811
H         -1.01080       -2.35424        5.10718
C         -3.10851       -0.67049        4.51179
H         -2.68356        0.10321        5.16830
H         -3.49420       -1.48154        5.14815
H         -3.94443       -0.22222        3.96013
C         -2.50317       -2.29233        2.56748
O         -1.71101       -2.01178        1.40997
C         -2.21888       -3.71548        3.01289
H         -2.73958       -3.94733        3.95474
H         -2.57349       -4.41716        2.24376
H         -1.14324       -3.88409        3.14840
C         -3.97012       -2.14423        2.18385
H         -4.17623       -1.12470        1.82779
H         -4.19820       -2.85048        1.37327
H         -4.63719       -2.37115        3.02782
H         -1.48588        5.80844        2.44595
H         -0.62185        4.25023       -4.29073
C          2.16147        0.69043        0.28867
C          2.81005        1.89133        0.00627
C          3.05198       -0.35478        0.59749
C          4.18790        2.07252        0.02334
F          2.09145        2.99830       -0.28995
C          4.43718       -0.22058        0.58308
H          2.65571       -1.34713        0.82135
C          5.05680        1.00973        0.30288
H          4.58952        3.06781       -0.18423
Cl         5.39155       -1.66671        0.80979
N          6.44034        1.18754        0.25181
H          6.66109        2.08616       -0.16229
C          7.23513        0.95148        1.43908
H          8.29635        1.11327        1.19884
H          7.12805       -0.08928        1.77074
H          6.96601        1.60966        2.28966
