110
Int2_comp171_9_Sub20.log	Energy: -1509766.9519234
N         -0.43451       -2.13204       -0.98988
C         -0.64191       -2.12280       -2.31713
C         -1.10448       -3.25772       -2.98891
C         -1.33566       -4.42247       -2.26689
C         -1.08196       -4.42616       -0.89995
C         -0.62896       -3.25534       -0.29853
H         -0.40387       -3.19735        0.76633
H         -1.23616       -5.31863       -0.29187
H         -1.28820       -3.23555       -4.06246
C         -0.31869       -0.86118       -3.01030
N          0.07540        0.16988       -2.23540
C          0.44377        1.32793       -2.80012
C          0.42309        1.51757       -4.17597
C          0.00476        0.47059       -4.99157
C         -0.36730       -0.72923       -4.40126
H         -0.68442       -1.56708       -5.02022
H          0.73115        2.47878       -4.58970
H          0.75376        2.11248       -2.10457
Ir         0.04859       -0.10000       -0.09200
H         -0.21191       -0.25996        1.47386
B          2.14166       -0.22956       -0.53455
O          2.84891       -1.34290       -0.93649
C          3.92472       -0.92624       -1.78839
C          5.13637       -1.79788       -1.51433
H          5.41932       -1.77412       -0.45467
H          5.99897       -1.47303       -2.11561
H          4.90618       -2.83982       -1.78016
C          3.45020       -1.13287       -3.22313
H          4.23968       -0.90629       -3.95413
H          3.15168       -2.18399       -3.34610
H          2.57670       -0.50555       -3.44923
C          4.10049        0.58924       -1.40703
O          2.81447        0.92415       -0.87489
C          5.11924        0.82283       -0.30015
H          4.90352        0.18815        0.56759
H          6.14741        0.63070       -0.63937
H          5.05089        1.87008        0.02760
C          4.39103        1.50932       -2.58011
H          3.59185        1.47208       -3.33159
H          4.46681        2.54551       -2.21954
H          5.34350        1.24504       -3.06399
B          0.35164        1.79796        0.56437
O          0.39683        2.20145        1.88131
C          0.92793        3.52724        1.92021
C          0.34932        4.26116        3.11431
H         -0.74758        4.22342        3.11553
H          0.70411        3.78789        4.04136
H          0.66937        5.31445        3.12356
C          2.44250        3.39369        2.05251
H          2.93604        4.37021        2.16688
H          2.65982        2.77780        2.93626
H          2.86079        2.87171        1.17945
C          0.49280        4.08827        0.52629
O          0.49419        2.89854       -0.27496
C          1.45041        5.09315       -0.08509
H          2.44135        4.64925       -0.24524
H          1.06542        5.43081       -1.05910
H          1.55805        5.97743        0.56145
C         -0.93041        4.63332        0.52664
H         -1.62694        3.91031        0.97508
H         -1.00508        5.58497        1.07273
H         -1.24722        4.80665       -0.51246
B          1.33154       -0.85433        1.37702
O          1.23909       -2.19028        1.74692
C          1.75009       -2.30433        3.08042
C          0.58587       -2.08335        4.04040
H          0.18154       -1.06512        3.94471
H         -0.22768       -2.77634        3.78671
H          0.88521       -2.24633        5.08607
C          2.33085       -3.69335        3.26337
H          1.52110       -4.43675        3.22547
H          2.83001       -3.78591        4.23993
H          3.05091       -3.93433        2.47091
C          2.79158       -1.13609        3.11929
O          2.21974       -0.19066        2.20568
C          2.94992       -0.46575        4.47141
H          3.29829       -1.18433        5.22905
H          3.69404        0.34094        4.39719
H          2.00497       -0.02268        4.80929
C          4.15137       -1.55243        2.57325
H          4.04573       -2.01275        1.58044
H          4.78601       -0.65970        2.48014
H          4.65921       -2.26013        3.24401
H         -1.70464       -5.31789       -2.77185
H         -0.02768        0.58260       -6.07741
C         -2.01221        0.42972       -0.21280
C         -2.40951        1.49623       -1.03536
C         -3.06088       -0.23454        0.47779
C         -3.73521        1.84316       -1.17979
H         -1.65800        2.09063       -1.55786
C         -4.44864        0.07381        0.35756
C         -2.62817       -1.28188        1.35898
C         -4.75856        1.14303       -0.50868
H         -4.02020        2.67862       -1.82334
C         -5.50037       -0.74006        1.13983
N         -2.24858       -2.12085        2.06682
C         -6.06199        1.65569       -0.81951
N         -7.03669        2.17781       -1.17236
C         -6.94793       -0.31038        0.88774
H         -7.60349       -0.95972        1.48741
H         -7.14468        0.72486        1.19610
H         -7.24909       -0.42256       -0.16243
C         -5.41706       -2.21995        0.72156
H         -4.44307       -2.67858        0.92712
H         -6.17589       -2.79713        1.27243
H         -5.63028       -2.32281       -0.35373
C         -5.26007       -0.56930        2.65104
H         -6.01794       -1.14272        3.20724
H         -4.27541       -0.92010        2.98019
H         -5.36321        0.48938        2.93418
