111
Int2_comp34_7_Sub20.log	Energy: -1512319.9322365
N         -0.43507        2.12334        1.49855
C         -0.52675        3.27929        0.82168
C         -0.62778        4.50489        1.48919
C         -0.62569        4.52078        2.87722
C         -0.52687        3.31339        3.56386
C         -0.43673        2.13553        2.83167
H         -0.39277        1.15627        3.30926
H         -0.52135        3.27675        4.65430
H         -0.69837        5.43885        0.93278
C         -0.49660        3.16649       -0.64844
N         -0.32509        1.92566       -1.15315
C         -0.26582        1.74661       -2.48002
C         -0.38343        2.80550       -3.37088
C         -0.56937        4.09137       -2.87053
C         -0.62486        4.27129       -1.49593
H         -0.76941        5.26718       -1.07979
H         -0.32609        2.61160       -4.44284
H         -0.11674        0.71398       -2.80833
Ir        -0.16352        0.28886        0.22914
H          0.18049       -0.85645        1.28785
B         -2.21257        0.16145       -0.39421
O         -3.28955        0.87563        0.09512
C         -4.24644        1.05739       -0.95659
C         -5.64391        0.94710       -0.37449
H         -5.78776       -0.00479        0.15182
H         -6.40724        1.03100       -1.16289
H         -5.80562        1.76088        0.34741
C         -4.02559        2.45985       -1.51299
H         -4.76914        2.72000       -2.28025
H         -4.10719        3.18233       -0.68794
H         -3.02369        2.56064       -1.95211
C         -3.86207       -0.07814       -1.97510
O         -2.49463       -0.33631       -1.64861
C         -4.62925       -1.37526       -1.75702
H         -4.55915       -1.69731       -0.71130
H         -5.68935       -1.27953       -2.03348
H         -4.17614       -2.16098       -2.37848
C         -3.93857        0.32696       -3.43735
H         -3.27412        1.17242       -3.65733
H         -3.62338       -0.51944       -4.06475
H         -4.96631        0.60029       -3.72096
B          0.26596       -1.24739       -1.02561
O          0.55201       -2.54281       -0.63026
C          0.55222       -3.37277       -1.79246
C          1.52371       -4.51943       -1.59037
H          2.52609       -4.15656       -1.32909
H          1.17039       -5.15922       -0.76849
H          1.59824       -5.13792       -2.49809
C         -0.87118       -3.89707       -1.96263
H         -0.95451       -4.60955       -2.79684
H         -1.16910       -4.40114       -1.03240
H         -1.57019       -3.06300       -2.12255
C          0.95541       -2.35702       -2.90942
O          0.38566       -1.14349       -2.40758
C          0.37087       -2.64745       -4.27871
H         -0.72632       -2.62935       -4.25295
H          0.70790       -1.88493       -4.99689
H          0.70184       -3.63035       -4.64782
C          2.46274       -2.14417       -2.99905
H          2.88573       -1.93363       -2.00587
H          2.97763       -3.01291       -3.43523
H          2.65980       -1.26855       -3.63458
B         -1.46992       -0.88040        1.35263
O         -1.79761       -0.49888        2.65671
C         -2.17142       -1.67661        3.37310
C         -0.90549       -2.25006        4.00555
H         -0.17418       -2.53842        3.23601
H         -0.44306       -1.47914        4.63943
H         -1.11904       -3.12818        4.63209
C         -3.17349       -1.30198        4.44884
H         -2.68547       -0.66643        5.20261
H         -3.55992       -2.19769        4.95873
H         -4.01678       -0.73939        4.02880
C         -2.73320       -2.58540        2.22808
O         -1.98151       -2.14441        1.09487
C         -2.49617       -4.07297        2.41668
H         -2.98319       -4.43883        3.33374
H         -2.91844       -4.62220        1.56241
H         -1.42445       -4.30310        2.46509
C         -4.20704       -2.31790        1.94825
H         -4.38049       -1.24480        1.78284
H         -4.49902       -2.86284        1.03947
H         -4.84895       -2.66262        2.77166
H         -0.69860        5.46766        3.41654
H         -0.66870        4.94680       -3.54207
C          1.95277        0.58223        0.22443
C          2.54721        1.81623       -0.11227
C          2.81241       -0.48191        0.56218
C          3.92543        1.90569       -0.09090
H          1.97249        2.70132       -0.39175
C          4.22035       -0.41035        0.57927
H          2.35784       -1.44054        0.80874
C          4.74025        0.83241        0.24114
O          4.71102        2.98011       -0.42095
C          5.12390       -1.59440        0.90994
O          6.05529        1.22018        0.10955
C          6.01003        2.62438       -0.00784
H          6.74563        2.95827       -0.75550
H          6.22802        3.08710        0.97898
C          6.04079       -1.22225        2.08432
H          6.71220       -2.06171        2.32816
H          6.65895       -0.34601        1.84420
H          5.44592       -0.98874        2.98096
C          4.31920       -2.83528        1.29531
H          3.64745       -3.15893        0.48665
H          5.00621       -3.66667        1.51748
H          3.70327       -2.65814        2.18999
C          5.97513       -1.92207       -0.32636
H          6.65815       -2.76091       -0.11406
H          5.33286       -2.20940       -1.17340
H          6.57840       -1.05592       -0.63405
