100
Int2_comp15_0_Sub7.log	Energy: -1432819.6407299
N          1.47993       -1.58908       -1.21712
C          2.44657       -2.08340       -0.42668
C          3.44465       -2.91800       -0.93853
C          3.42826       -3.23857       -2.28850
C          2.40664       -2.73633       -3.09071
C          1.45032       -1.91175       -2.51041
H          0.61386       -1.49593       -3.07488
H          2.35009       -2.96900       -4.15511
H          4.24636       -3.28380       -0.29889
C          2.37169       -1.70924        0.99809
N          1.41749       -0.82006        1.34508
C          1.26801       -0.46479        2.62704
C          2.06979       -0.98538        3.63354
C          3.05812       -1.90600        3.29566
C          3.20541       -2.27401        1.96683
H          3.96898       -2.99422        1.67883
H          1.91595       -0.66153        4.66371
H          0.48425        0.26855        2.82558
Ir         0.31570        0.06788       -0.26059
H         -0.25782        0.85876       -1.53235
B         -1.15445       -1.24351        0.60060
O         -1.34291       -2.57715        0.31269
C         -1.79278       -3.24442        1.50032
C         -2.79637       -4.31454        1.11220
H         -3.63019       -3.89659        0.53411
H         -3.20347       -4.81453        2.00403
H         -2.30012       -5.07361        0.49036
C         -0.56261       -3.88828        2.13138
H         -0.82073       -4.48580        3.01754
H         -0.09277       -4.54943        1.38910
H          0.17900       -3.13196        2.42432
C         -2.38194       -2.06423        2.35723
O         -1.69895       -0.92416        1.82397
C         -3.87156       -1.83842        2.13868
H         -4.10166       -1.75414        1.06995
H         -4.47812       -2.64668        2.57217
H         -4.15882       -0.89190        2.61907
C         -2.08496       -2.15039        3.84431
H         -1.00527       -2.16369        4.04073
H         -2.50905       -1.27144        4.35136
H         -2.53604       -3.05163        4.28642
B         -0.57477        1.60387        0.72935
O         -1.33045        2.60078        0.11392
C         -2.01320        3.33942        1.13262
C         -2.21011        4.76901        0.66757
H         -1.26027        5.23266        0.37027
H         -2.88424        4.78328       -0.20146
H         -2.66490        5.38138        1.46105
C         -3.35744        2.65215        1.34911
H         -3.98423        3.19305        2.07331
H         -3.88427        2.60391        0.38609
H         -3.20982        1.61820        1.69345
C         -1.04524        3.16505        2.34625
O         -0.48588        1.87289        2.08601
C         -1.72069        3.14522        3.70399
H         -2.43104        2.31211        3.77978
H         -0.96480        3.02116        4.49358
H         -2.25633        4.08834        3.89168
C          0.10619        4.16463        2.33066
H          0.58559        4.19248        1.34093
H         -0.22463        5.17962        2.59516
H          0.86361        3.84470        3.06062
B         -1.45099       -0.28187       -1.32549
O         -1.42524       -1.03817       -2.49647
C         -2.55398       -0.65946       -3.28753
C         -2.11065        0.48451       -4.19581
H         -1.79631        1.35888       -3.60684
H         -1.24846        0.15214       -4.79223
H         -2.90810        0.79518       -4.88620
C         -2.99709       -1.84963       -4.11709
H         -2.21965       -2.09600       -4.85522
H         -3.92559       -1.62578       -4.66411
H         -3.15807       -2.73489       -3.48920
C         -3.57252       -0.19722       -2.19203
O         -2.70787        0.27435       -1.15409
C         -4.49131        0.93639       -2.61021
H         -5.10828        0.64684       -3.47463
H         -5.16593        1.18824       -1.77881
H         -3.92171        1.83883       -2.86565
C         -4.38678       -1.35608       -1.63096
H         -3.72564       -2.17458       -1.31183
H         -4.94931       -1.00058       -0.75616
H         -5.10670       -1.74331       -2.36606
H          4.21080       -3.87301       -2.71022
H          3.71044       -2.33494        4.05930
C          2.10180        1.18971       -0.57730
C          2.20141        2.51551       -1.11760
N          3.23361        0.55874       -0.30600
C          3.50134        3.02448       -1.32014
N          1.09411        3.23444       -1.42656
C          4.41768        1.12902       -0.54208
N          4.60542        2.33915       -1.04198
H          3.64701        4.02989       -1.72819
C          5.56419        0.30984       -0.22322
N          6.44067       -0.40173        0.04301
H          0.20380        2.87947       -1.08487
C          1.13176        4.59628       -1.86457
H          0.10220        4.95143       -2.00409
H          1.65759        4.70603       -2.82931
H          1.62891        5.26936       -1.13885
