109
Int2_comp23_0_Sub16.log	Energy: -1509185.1750119
N          0.20612        1.87274       -1.82141
C          0.06772        3.11826       -1.33768
C          0.18750        4.23636       -2.17012
C          0.44654        4.05037       -3.52103
C          0.58278        2.75273       -4.00710
C          0.45789        1.69133       -3.11863
H          0.58773        0.65607       -3.43570
H          0.78456        2.55655       -5.06124
H          0.07146        5.24303       -1.77037
C         -0.22993        3.22079        0.10272
N         -0.37920        2.05701        0.77028
C         -0.69261        2.06778        2.07305
C         -0.85918        3.25198        2.77870
C         -0.69515        4.46307        2.11210
C         -0.37859        4.44500        0.76136
H         -0.25191        5.37945        0.21687
H         -1.12058        3.21200        3.83692
H         -0.82112        1.08534        2.53450
Ir        -0.09121        0.22949       -0.32503
H         -0.05085       -1.10457       -1.19300
B          1.75937        0.52253        0.69914
O          2.81260        1.33346        0.31642
C          3.54131        1.73069        1.48644
C          5.02187        1.77420        1.15654
H          5.37666        0.81425        0.76095
H          5.61562        2.02550        2.04859
H          5.20699        2.54431        0.39346
C          3.04970        3.12441        1.86009
H          3.61249        3.54616        2.70549
H          3.17613        3.78683        0.99145
H          1.98332        3.11164        2.12389
C          3.13033        0.63261        2.53020
O          1.85429        0.21050        2.03943
C          4.04131       -0.58796        2.50832
H          4.12807       -0.98619        1.48935
H          5.04310       -0.36422        2.90290
H          3.58961       -1.37595        3.12758
C          2.96070        1.13827        3.95139
H          2.18704        1.91457        4.01270
H          2.65419        0.30547        4.60094
H          3.90513        1.54675        4.34220
B         -0.54314       -1.14887        1.09939
O         -0.34898       -2.51120        0.99585
C         -0.63943       -3.11271        2.25750
C         -1.22263       -4.49280        2.02077
H         -2.07226       -4.44776        1.32707
H         -0.45595       -5.14435        1.57590
H         -1.55459       -4.95045        2.96549
C          0.67932       -3.20073        3.01923
H          0.56898       -3.71855        3.98365
H          1.40211       -3.75285        2.40136
H          1.08900       -2.19407        3.18717
C         -1.63101       -2.07923        2.88582
O         -1.17353       -0.85316        2.30245
C         -1.56200       -1.96254        4.39656
H         -0.56364       -1.64809        4.72773
H         -2.28960       -1.21361        4.74345
H         -1.80831       -2.92208        4.87657
C         -3.06972       -2.28824        2.42585
H         -3.11969       -2.39992        1.33294
H         -3.52610       -3.17061        2.89843
H         -3.66010       -1.40073        2.69610
B          1.56209       -0.84509       -0.99144
O          2.00867       -0.69046       -2.30224
C          3.23060       -1.41472       -2.46481
C          3.27527       -1.99599       -3.86621
H          2.37827       -2.58921       -4.08444
H          3.33086       -1.18110       -4.60304
H          4.16228       -2.63415       -3.99835
C          4.37181       -0.42320       -2.26666
H          4.25838        0.39058       -2.99766
H          5.35604       -0.89037       -2.41700
H          4.32573        0.02819       -1.26643
C          3.13317       -2.48093       -1.31913
O          2.32245       -1.81063       -0.34962
C          2.38194       -3.74195       -1.73119
H          2.96942       -4.36567       -2.42060
H          2.15942       -4.32627       -0.82718
H          1.42390       -3.49351       -2.20654
C          4.46140       -2.85550       -0.68842
H          4.98309       -1.97942       -0.28366
H          4.28970       -3.56120        0.13727
H          5.11876       -3.34237       -1.42483
H          0.53812        4.91092       -4.18721
H         -0.81707        5.41350        2.63585
C         -2.21147        0.17095       -0.68426
C         -2.98235        1.29279       -0.37085
C         -2.98264       -0.97592       -1.05050
C         -4.39229        1.25656       -0.32687
H         -2.54619        2.25341       -0.10074
C         -4.39719       -0.88073       -0.91645
C         -2.72613       -2.33235       -1.50996
N         -5.11614        0.18371       -0.55749
O         -5.01339        2.40876        0.00598
N         -4.94856       -2.09040       -1.21659
C         -3.94744       -2.95879       -1.58412
C         -1.46818       -2.96701       -2.01523
H         -5.93950       -2.27877       -1.19087
H         -4.17371       -3.97255       -1.90987
C         -1.01812       -2.37818       -3.35020
H         -1.65653       -4.04666       -2.14102
H         -0.67220       -2.89694       -1.25942
H         -0.09758       -2.85745       -3.71961
H         -0.82039       -1.30030       -3.25408
H         -1.79982       -2.50495       -4.11465
C         -6.41425        2.37559        0.08427
H         -6.86872        2.08782       -0.87788
H         -6.76205        1.65420        0.84184
H         -6.73389        3.38958        0.35990
