99
Int2_comp69_1_Sub15.log	Energy: -1613939.9082972
N         -0.36266       -2.35446        0.87388
C         -0.62287       -3.19488       -0.14099
C         -0.58589       -4.58045        0.04039
C         -0.29920       -5.09121        1.29938
C         -0.06055       -4.20650        2.34718
C         -0.09633       -2.84206        2.08537
H          0.12366       -2.10311        2.85551
H          0.16120       -4.56117        3.35481
H         -0.77198       -5.25549       -0.79419
C         -0.98930       -2.56345       -1.42294
N         -0.87174       -1.22295       -1.49466
C         -1.26323       -0.58022       -2.59834
C         -1.78219       -1.24668       -3.70086
C         -1.89550       -2.63182       -3.65279
C         -1.49632       -3.29456       -2.50014
H         -1.60151       -4.37610       -2.42709
H         -2.08752       -0.67615       -4.57891
H         -1.11731        0.50111       -2.58645
Ir        -0.19728       -0.18472        0.27085
H         -0.11820        0.59517        1.65900
B          1.74027       -0.53366       -0.58817
O          2.76645        0.31272       -0.94882
C          3.68676       -0.38881       -1.79601
C          4.14214        0.55785       -2.89213
H          3.28668        1.00488       -3.41380
H          4.77788        0.03861       -3.62561
H          4.72956        1.37515       -2.44884
C          4.87788       -0.82371       -0.95264
H          5.63031       -1.34760       -1.55959
H          5.35268        0.06397       -0.51380
H          4.56074       -1.48681       -0.13461
C          2.82613       -1.60121       -2.28456
O          1.91223       -1.77002       -1.19570
C          1.99874       -1.26377       -3.52128
H          1.46461       -0.31207       -3.38542
H          2.62252       -1.19257       -4.42406
H          1.25207       -2.05620       -3.67775
C          3.58404       -2.89770       -2.49503
H          4.05863       -3.24062       -1.56691
H          2.88438       -3.67975       -2.82515
H          4.35775       -2.78353       -3.26944
B         -0.03581        1.68799       -0.49779
O         -0.15891        2.87606        0.18837
C          0.30625        3.93289       -0.65563
C         -0.46203        5.19988       -0.33203
H         -1.54682        5.04015       -0.38536
H         -0.21963        5.52331        0.69056
H         -0.18918        6.01347       -1.02169
C          1.79263        4.11583       -0.36425
H          2.22020        4.95897       -0.92694
H          1.91302        4.30846        0.71084
H          2.35062        3.19670       -0.59474
C          0.04103        3.34793       -2.08287
O          0.18084        1.94015       -1.85170
C          1.04219        3.76964       -3.14185
H          2.05855        3.45562       -2.87218
H          0.78440        3.30208       -4.10407
H          1.03276        4.86147       -3.28113
C         -1.38439        3.58941       -2.56754
H         -2.11796        3.27332       -1.81149
H         -1.56316        4.64651       -2.81182
H         -1.55870        2.99711       -3.47874
B          1.43733        0.23143        1.49953
O          1.94274       -0.70899        2.39838
C          2.61744        0.00088        3.44341
C          1.60536        0.22299        4.56370
H          0.75290        0.82437        4.21516
H          1.22011       -0.75225        4.89723
H          2.05504        0.72619        5.43166
C          3.77503       -0.84298        3.94282
H          3.38950       -1.75974        4.41305
H          4.36533       -0.29651        4.69388
H          4.43827       -1.13857        3.12016
C          3.02971        1.33573        2.72599
O          2.02996        1.45935        1.71805
C          2.98166        2.57171        3.60791
H          3.66965        2.47642        4.46199
H          3.28679        3.45001        3.02062
H          1.96794        2.75774        3.98432
C          4.38311        1.24264        2.03609
H          4.44424        0.33663        1.42367
H          4.49492        2.10691        1.36600
H          5.21289        1.24530        2.75805
H         -0.26324       -6.17100        1.45958
H         -2.30037       -3.19220       -4.49824
C         -2.26360        0.15732        0.54141
S         -3.37994       -1.19706        0.64490
C         -2.99263        1.30946        0.62922
C         -4.79679       -0.20226        0.77445
C         -4.42267        1.13874        0.75736
H         -2.52744        2.29631        0.61278
N         -6.03095       -0.78326        0.86025
C         -5.31062        2.24434        0.80222
N         -6.00827        3.17529        0.81994
H         -6.01072       -1.77953        1.02977
C         -7.18503       -0.08907        1.37432
H         -8.04150       -0.77658        1.36610
H         -7.44099        0.77484        0.74555
H         -7.03976        0.28261        2.40605
