107
Int2_comp91_6_Sub20.log	Energy: -1466393.6880133
N         -1.18070        1.01302        1.77955
C         -1.71059        0.16158        2.67378
C         -2.63461        0.60013        3.62803
C         -2.99893        1.93983        3.65536
C         -2.41827        2.81389        2.73994
C         -1.50949        2.30544        1.81921
H         -0.99668        2.93793        1.09154
H         -2.66386        3.87695        2.73096
H         -3.07740       -0.10009        4.33538
C         -1.25969       -1.23855        2.57514
N         -0.45989       -1.54390        1.53377
C         -0.00455       -2.79231        1.39174
C         -0.33249       -3.80709        2.28100
C         -1.15768       -3.51239        3.36103
C         -1.62198       -2.21288        3.50863
H         -2.26134       -1.95371        4.35132
H          0.06111       -4.81138        2.11812
H          0.64582       -2.95898        0.52950
Ir        -0.08254        0.00296        0.10694
H         -0.26799        1.04160       -1.09271
B          1.88411        0.02473        0.97453
O          3.15081        0.29092        0.48350
C          4.11796        0.04844        1.51411
C          5.37135       -0.51842        0.87432
H          5.14173       -1.39935        0.26133
H          6.11262       -0.80008        1.63784
H          5.82517        0.23955        0.21926
C          4.42478        1.37721        2.19695
H          5.16826        1.25770        2.99807
H          4.83571        2.08220        1.46140
H          3.51218        1.81955        2.62225
C          3.34812       -0.93346        2.45227
O          1.99063       -0.52790        2.24412
C          3.46097       -2.38590        1.99889
H          3.20886       -2.48224        0.93232
H          4.46871       -2.79173        2.17032
H          2.74417       -2.99063        2.57368
C          3.67522       -0.81450        3.92849
H          3.44749        0.18846        4.31130
H          3.07051       -1.53709        4.49589
H          4.73698       -1.03504        4.11770
B          0.81270       -1.07858       -1.36476
O          0.78761       -0.81562       -2.71490
C          1.79795       -1.60299       -3.34804
C          1.35481       -1.93631       -4.75987
H          0.35846       -2.39644       -4.77050
H          1.30467       -1.01246       -5.35400
H          2.06834       -2.61851       -5.24726
C          3.07413       -0.76662       -3.37061
H          3.89012       -1.27761       -3.90300
H          2.85618        0.18254       -3.87916
H          3.39745       -0.51873       -2.34920
C          1.90248       -2.83120       -2.38463
O          1.55808       -2.23839       -1.12481
C          3.28586       -3.44373       -2.27436
H          4.01565       -2.71107       -1.90631
H          3.26532       -4.28928       -1.57039
H          3.62746       -3.82227       -3.24985
C          0.86363       -3.90590       -2.68349
H         -0.13926       -3.46642       -2.78447
H          1.09846       -4.45771       -3.60525
H          0.84043       -4.62552       -1.85129
B          1.06292        1.64188       -0.48603
O          1.00248        2.85480        0.20117
C          1.47669        3.88868       -0.66889
C          0.25090        4.51676       -1.32611
H         -0.30814        3.77279       -1.91265
H         -0.41704        4.90523       -0.54244
H          0.51893        5.35250       -1.98823
C          2.21511        4.92333        0.15966
H          1.51432        5.41354        0.85166
H          2.65962        5.69887       -0.48230
H          3.01113        4.46035        0.75637
C          2.37408        3.09309       -1.68683
O          1.80679        1.78796       -1.63899
C          2.30062        3.59686       -3.11912
H          2.64424        4.64022       -3.19081
H          2.95196        2.97948       -3.75461
H          1.28149        3.52795       -3.51985
C          3.83041        2.99104       -1.25399
H          3.90069        2.61439       -0.22842
H          4.33819        2.26566       -1.90552
H          4.35008        3.95731       -1.33064
H         -3.72729        2.29675        4.38662
H         -1.43713       -4.28291        4.08260
C         -2.02221       -0.58015       -0.57135
C         -3.09485        0.32640       -0.60254
C         -2.35462       -1.88559       -0.94082
C         -4.39833       -0.03956       -0.95088
H         -2.91097        1.36917       -0.33682
N         -3.58332       -2.28134       -1.28775
H         -1.59125       -2.67343       -0.95776
C         -4.53840       -1.39623       -1.28332
C         -5.57454        0.93473       -0.95503
F         -5.75165       -1.86163       -1.63093
C         -6.63401        0.45601        0.04981
H         -7.49111        1.14873        0.06091
H         -7.00542       -0.54537       -0.20459
H         -6.21225        0.41869        1.06668
C         -5.13603        2.34284       -0.54744
H         -4.38680        2.75576       -1.24018
H         -6.00727        3.01567       -0.55907
H         -4.71141        2.36249        0.46842
C         -6.18039        1.00922       -2.36465
H         -7.03215        1.70842       -2.37786
H         -5.43282        1.36838       -3.08870
H         -6.53731        0.02685       -2.70039
