102
Int2_comp30_6_Sub14.log	Energy: -1344778.5029936
N          1.74886       -1.83642        0.18069
C          2.72635       -1.56067        1.05825
C          3.83604       -2.39760        1.20210
C          3.90268       -3.56293        0.44885
C          2.84439       -3.87586       -0.39816
C          1.78457       -2.97983       -0.50083
H          0.91585       -3.16954       -1.13500
H          2.83583       -4.79606       -0.98435
H          4.64450       -2.13669        1.88460
C          2.50525       -0.37010        1.89929
N          1.47911        0.42937        1.54911
C          1.13094        1.45145        2.34305
C          1.80651        1.73384        3.52206
C          2.89522        0.94300        3.87904
C          3.24541       -0.12080        3.05917
H          4.07136       -0.77649        3.33164
H          1.48412        2.57599        4.13579
H          0.29375        2.05694        1.98985
Ir         0.45613        0.01060       -0.30120
H         -0.12855       -0.16226       -1.77532
B         -1.04963       -0.48497        1.15077
O         -1.24693       -1.70690        1.76699
C         -1.76866       -1.48445        3.08251
C         -2.76067       -2.58377        3.41592
H         -3.56272       -2.64591        2.66989
H         -3.21445       -2.41753        4.40476
H         -2.24083       -3.55268        3.43626
C         -0.58117       -1.55109        4.03834
H         -0.89089       -1.45487        5.08907
H         -0.08171       -2.52199        3.90853
H          0.15324       -0.76374        3.81721
C         -2.39063       -0.04590        2.96729
O         -1.65873        0.51892        1.87584
C         -3.86032       -0.04797        2.56924
H         -4.01987       -0.65851        1.67253
H         -4.50619       -0.42142        3.37717
H         -4.16183        0.98208        2.33014
C         -2.18961        0.83204        4.19068
H         -1.12507        0.97000        4.41947
H         -2.62609        1.82382        4.00234
H         -2.68677        0.40114        5.07303
B         -0.48353        1.76710       -0.64763
O         -1.22033        2.08032       -1.77469
C         -2.01144        3.23192       -1.48232
C         -2.23518        4.02026       -2.75859
H         -1.28606        4.24660       -3.26116
H         -2.85084        3.42804       -3.45126
H         -2.76352        4.96404       -2.55290
C         -3.33980        2.73233       -0.92029
H         -4.04568        3.55559       -0.73454
H         -3.78427        2.03690       -1.64569
H         -3.17794        2.17155        0.01183
C         -1.13880        3.95457       -0.40418
O         -0.49725        2.84530        0.23527
C         -1.92175        4.73281        0.63635
H         -2.59225        4.07261        1.20128
H         -1.22756        5.20420        1.34820
H         -2.51902        5.52917        0.16633
C         -0.04813        4.82547       -1.01721
H          0.51877        4.26569       -1.77526
H         -0.46172        5.73310       -1.48083
H          0.65397        5.13006       -0.22736
B         -1.20506       -1.04898       -0.95770
O         -2.50265       -0.63433       -1.21756
C         -3.26605       -1.74395       -1.69708
C         -4.05549       -2.31201       -0.52429
H         -3.37621       -2.64584        0.27273
H         -4.70503       -1.52207       -0.12144
H         -4.69353       -3.15348       -0.83015
C         -4.21427       -1.24874       -2.77451
H         -4.95100       -0.56553       -2.32713
H         -4.76044       -2.08538       -3.23667
H         -3.67790       -0.69738       -3.55687
C         -2.15335       -2.72675       -2.19875
O         -1.05154       -2.38112       -1.35521
C         -2.46715       -4.20005       -2.01510
H         -3.37440       -4.48292       -2.57036
H         -1.63306       -4.80580       -2.39953
H         -2.60604       -4.44921       -0.95557
C         -1.73750       -2.45295       -3.64079
H         -1.51651       -1.38698       -3.79423
H         -0.82352       -3.02157       -3.86511
H         -2.51689       -2.75601       -4.35481
H          4.76773       -4.22429        0.53342
H          3.45933        1.14276        4.79266
C          2.25601        0.60756       -1.36576
C          2.62844       -0.15491       -2.51105
C          3.19050        1.58003       -0.93132
C          1.65845       -1.04046       -3.24867
C          3.91050       -0.05273       -3.06234
C          4.46889        1.66419       -1.50898
C          2.89014        2.61936        0.11788
H          0.87572       -0.42531       -3.72398
H          1.13322       -1.75514       -2.60574
H          2.16561       -1.60269       -4.04684
C          4.85119        0.83284       -2.54834
H          4.16633       -0.67354       -3.92653
H          5.16663        2.41969       -1.13280
H          5.85264        0.89920       -2.98156
H          3.33749        2.36985        1.09473
H          1.81394        2.76565        0.25378
H          3.32197        3.58700       -0.18180
