99
Int2_comp165_4_Sub9.log	Energy: -3183870.1207209
N         -0.88884        2.08772        1.51457
C         -1.56589        3.08308        0.92060
C         -2.07595        4.15349        1.66208
C         -1.85286        4.19622        3.03192
C         -1.11940        3.17377        3.62638
C         -0.65906        2.13429        2.82641
H         -0.10712        1.29116        3.24031
H         -0.90612        3.17135        4.69633
H         -2.62928        4.95520        1.17469
C         -1.68194        2.99872       -0.54658
N         -1.05198        1.96371       -1.14101
C         -1.04615        1.86681       -2.47580
C         -1.68428        2.79752       -3.28652
C         -2.35744        3.85930       -2.69132
C         -2.35248        3.95900       -1.30662
H         -2.86719        4.78409       -0.81670
H         -1.64550        2.67889       -4.37023
H         -0.49938        1.01293       -2.88323
Ir        -0.20523        0.43580        0.13804
H          0.53191       -0.64728        1.04896
B         -2.12731       -0.30513       -0.37966
O         -3.33757       -0.05174        0.23644
C         -4.39437       -0.24042       -0.71691
C         -5.59130       -0.85890       -0.01912
H         -5.32864       -1.79947        0.47951
H         -6.40231       -1.05669       -0.73642
H         -5.97154       -0.16375        0.74369
C         -4.75978        1.14095       -1.24663
H         -5.62388        1.10476       -1.92573
H         -5.01161        1.78961       -0.39510
H         -3.91618        1.59699       -1.78162
C         -3.71819       -1.15285       -1.80089
O         -2.33083       -0.84102       -1.63546
C         -3.87896       -2.64163       -1.52404
H         -3.53691       -2.88366       -0.51005
H         -4.91987       -2.97380       -1.64757
H         -3.24782       -3.20312       -2.22650
C         -4.11690       -0.84083       -3.23250
H         -3.85996        0.19032       -3.50740
H         -3.58125       -1.51582       -3.91589
H         -5.19678       -0.98985       -3.38409
B          0.44980       -0.87734       -1.27870
O          0.67982       -2.22329       -1.14190
C          1.01531       -2.77145       -2.41689
C          2.05049       -3.86379       -2.22243
H          2.91264       -3.49645       -1.65136
H          1.60246       -4.69577       -1.65967
H          2.40214       -4.25354       -3.19015
C         -0.26761       -3.34686       -3.00682
H         -0.09137       -3.85607       -3.96585
H         -0.68154       -4.07339       -2.29274
H         -1.01387       -2.55184       -3.14354
C          1.53021       -1.51380       -3.19726
O          0.80634       -0.45578       -2.55682
C          1.20729       -1.50480       -4.68004
H          0.12421       -1.54244       -4.85527
H          1.59706       -0.58322       -5.13757
H          1.67616       -2.36044       -5.18947
C          3.01380       -1.23956       -2.97825
H          3.27366       -1.26414       -1.91107
H          3.64715       -1.96516       -3.50924
H          3.24572       -0.23258       -3.35449
B         -0.96823       -1.01311        1.41175
O         -1.21993       -0.67051        2.73665
C         -1.27832       -1.87834        3.49997
C          0.12741       -2.15375        4.02529
H          0.84044       -2.29208        3.19976
H          0.46442       -1.28824        4.61443
H          0.15791       -3.04291        4.67138
C         -2.24069       -1.68013        4.65613
H         -1.83237       -0.93022        5.34966
H         -2.38434       -2.61697        5.21560
H         -3.21669       -1.32078        4.30662
C         -1.73702       -2.91980        2.42211
O         -1.21492       -2.35784        1.21221
C         -1.15864       -4.31255        2.59140
H         -1.46422       -4.75334        3.55273
H         -1.52616       -4.96154        1.78338
H         -0.06298       -4.29946        2.53645
C         -3.25348       -2.98794        2.29756
H         -3.67400       -1.98588        2.13510
H         -3.51443       -3.61852        1.43587
H         -3.71381       -3.43281        3.19135
H         -2.24008        5.02655        3.62645
H         -2.87841        4.60494       -3.29562
C          1.81817        1.26657        0.10102
C          2.05957        2.58737       -0.29660
C          3.01010        0.56682        0.38356
C          3.30393        3.17067       -0.48561
F          1.02029        3.41237       -0.52355
Br         2.93117       -1.20616        1.09364
C          4.30368        1.09528        0.19359
C          4.43598        2.40828       -0.25490
H          3.36414        4.20997       -0.81246
C          5.57216        0.31026        0.42794
H          5.42875        2.82859       -0.41120
F          5.63136       -0.79621       -0.32367
F          5.72640       -0.06186        1.70113
F          6.65474        1.03663        0.11266
