104
Int2_comp75_3_Sub7.log	Energy: -1449809.5584797
N          1.37200       -1.66601        1.19205
C          2.13808       -1.11946        2.14977
C          3.12266       -1.86315        2.80621
C          3.29399       -3.19979        2.46823
C          2.46279       -3.76273        1.50561
C          1.51108       -2.95538        0.88948
H          0.82282       -3.32898        0.13056
H          2.55090       -4.81187        1.21981
H          3.76037       -1.40144        3.55927
C          1.84237        0.28657        2.48009
N          0.97306        0.92533        1.67499
C          0.59722        2.17795        1.96252
C          1.07169        2.85839        3.07468
C          1.99084        2.22269        3.90501
C          2.37829        0.92549        3.60410
H          3.07676        0.39704        4.25127
H          0.72862        3.87519        3.27015
H         -0.11002        2.62779        1.26399
Ir         0.30775       -0.11960       -0.09381
H          0.08231       -0.85280       -1.49480
B         -1.49658       -0.06503        1.05421
O         -1.91345       -0.96243        2.01710
C         -2.69359       -0.26488        2.99515
C         -3.81039       -1.17322        3.47590
H         -4.42401       -1.53509        2.64143
H         -4.46319       -0.65048        4.19142
H         -3.37802       -2.04820        3.98264
C         -1.75381        0.06093        4.15213
H         -2.28126        0.54121        4.98905
H         -1.30545       -0.87592        4.51288
H         -0.93670        0.72127        3.82865
C         -3.17013        1.00872        2.20868
O         -2.16703        1.13569        1.19546
C         -4.50416        0.81813        1.49967
H         -4.48816       -0.08621        0.87909
H         -5.34196        0.75267        2.20896
H         -4.67832        1.67610        0.83456
C         -3.19468        2.28776        3.02733
H         -2.20226        2.52825        3.43009
H         -3.51231        3.12446        2.38790
H         -3.90528        2.20857        3.86407
B         -0.42304        1.39098       -1.22271
O         -1.04411        1.28550       -2.44819
C         -1.69746        2.52130       -2.73161
C         -1.75253        2.72215       -4.23380
H         -0.75740        2.62866       -4.68726
H         -2.40000        1.95374       -4.68059
H         -2.16868        3.70969       -4.48619
C         -3.10513        2.42252       -2.14968
H         -3.71702        3.30485       -2.38967
H         -3.58779        1.52756       -2.56665
H         -3.06024        2.29126       -1.05868
C         -0.79998        3.54421       -1.96144
O         -0.33808        2.74498       -0.86223
C         -1.53219        4.75373       -1.41261
H         -2.31709        4.45528       -0.70586
H         -0.82489        5.40876       -0.88182
H         -1.99056        5.33782       -2.22528
C          0.42310        3.97502       -2.76278
H          0.96425        3.10090       -3.15329
H          0.14849        4.62717       -3.60458
H          1.10795        4.53454       -2.10887
B         -1.25038       -1.37061       -0.67300
O         -1.11344       -2.75193       -0.52361
C         -1.98288       -3.37821       -1.46812
C         -1.19371       -3.56393       -2.76162
H         -0.88131       -2.59516       -3.17782
H         -0.28308       -4.13998       -2.54178
H         -1.77301       -4.10560       -3.52344
C         -2.42151       -4.72279       -0.91933
H         -1.55598       -5.39965       -0.86393
H         -3.17495       -5.18898       -1.57247
H         -2.83804       -4.62407        0.09104
C         -3.12220       -2.31317       -1.60560
O         -2.42511       -1.09040       -1.35342
C         -3.75854       -2.23251       -2.98132
H         -4.22631       -3.18999       -3.25789
H         -4.53977       -1.45819       -2.97957
H         -3.02008       -1.96130       -3.74616
C         -4.19483       -2.47078       -0.53476
H         -3.73965       -2.50716        0.46535
H         -4.86892       -1.60348       -0.57980
H         -4.79716       -3.37759       -0.68916
H          4.06828       -3.79512        2.95712
H          2.39552        2.72748        4.78499
C          2.29043        0.19257       -0.84419
C          3.11260        1.33970       -0.70199
C          2.95031       -0.88921       -1.41788
C          4.49429        1.30491       -1.03085
N          2.55446        2.51271       -0.21824
O          2.35650       -2.08784       -1.71533
C          4.31746       -0.96283       -1.76131
C          5.10631        0.16963       -1.54192
H          5.09577        2.20423       -0.89028
C          3.31531       -2.90098       -2.22651
C          4.52586       -2.28975       -2.28090
H          6.17243        0.17478       -1.78105
H          2.98194       -3.89352       -2.52146
H          5.45165       -2.72246       -2.65495
H          1.56301        2.60688       -0.42001
C          3.27413        3.74480       -0.16063
H          2.60428        4.52879        0.22309
H          3.67027        4.08826       -1.13972
H          4.13112        3.68340        0.53260
