100
Int2_comp63_0_Sub25.log	Energy: -1517699.2680029
N         -0.18545       -1.99442       -1.58294
C         -0.91640       -3.05535       -1.20677
C         -1.11054       -4.14264       -2.06479
C         -0.52597       -4.12205       -3.32415
C          0.23006       -3.01464       -3.69722
C          0.37133       -1.96777       -2.79312
H          0.92604       -1.06141       -3.03512
H          0.70893       -2.95434       -4.67566
H         -1.70296       -5.00178       -1.75221
C         -1.48832       -2.99362        0.15122
N         -1.16952       -1.91230        0.89303
C         -1.64586       -1.78840        2.13877
C         -2.47862       -2.74470        2.70523
C         -2.82374       -3.86592        1.95565
C         -2.32237       -3.99011        0.66778
H         -2.57869       -4.85804        0.06223
H         -2.84177       -2.60309        3.72401
H         -1.32884       -0.89112        2.67660
Ir         0.13930       -0.45422        0.01844
H          1.27408        0.46642       -0.61809
B         -1.78069        0.47729       -0.18645
O         -2.71167        0.28252       -1.18758
C         -4.02591        0.45305       -0.64114
C         -4.90245        1.14042       -1.67224
H         -4.46904        2.09350       -2.00023
H         -5.90821        1.33289       -1.26899
H         -5.00520        0.49346       -2.55559
C         -4.56438       -0.94434       -0.35246
H         -5.60378       -0.91882        0.00545
H         -4.52869       -1.53304       -1.28056
H         -3.95085       -1.46125        0.39817
C         -3.75346        1.29254        0.66130
O         -2.38200        0.99826        0.93840
C         -3.85589        2.79671        0.44834
H         -3.24148        3.11258       -0.40302
H         -4.89359        3.12021        0.28144
H         -3.47131        3.30512        1.34424
C         -4.58550        0.88460        1.86526
H         -4.41717       -0.16574        2.13551
H         -4.30107        1.50335        2.72871
H         -5.65921        1.03378        1.67490
B          0.52441        0.73243        1.61567
O          1.46866        1.74923        1.62780
C          1.32991        2.47558        2.85107
C          2.68343        3.02038        3.26381
H          3.43885        2.22492        3.30776
H          3.01909        3.76828        2.53039
H          2.62833        3.50897        4.24873
C          0.34752        3.61178        2.58357
H          0.23547        4.27586        3.45345
H          0.71817        4.20024        1.73230
H         -0.63714        3.21030        2.30238
C          0.74123        1.38216        3.79890
O         -0.02938        0.59835        2.88175
C         -0.17116        1.90704        4.89064
H         -1.04238        2.42231        4.46618
H         -0.53588        1.07016        5.50474
H          0.36676        2.60356        5.55196
C          1.81322        0.46734        4.38214
H          2.47708        0.08546        3.59251
H          2.41783        0.97616        5.14737
H          1.32385       -0.40121        4.84588
B         -0.04510        1.17640       -1.27320
O          0.08152        0.99967       -2.64978
C          0.48351        2.24819       -3.21861
C          2.00870        2.27448       -3.24737
H          2.43044        2.23686       -2.23335
H          2.37540        1.39236       -3.79092
H          2.39229        3.17477       -3.74897
C         -0.06965        2.34420       -4.62810
H          0.41218        1.58692       -5.26403
H          0.13243        3.33366       -5.06585
H         -1.15133        2.16047       -4.64556
C         -0.11494        3.27479       -2.19774
O         -0.10374        2.53023       -0.97562
C          0.70601        4.53655       -2.00284
H          0.79779        5.09825       -2.94510
H          0.21185        5.18478       -1.26435
H          1.71067        4.30529       -1.62736
C         -1.56167        3.63163       -2.51539
H         -2.16745        2.72153       -2.63186
H         -1.97177        4.22016       -1.68254
H         -1.64205        4.23530       -3.43074
H         -0.65930       -4.96481       -4.00592
H         -3.47636       -4.63819        2.36847
C          1.70738       -1.63965        0.81745
C          1.63206       -2.88598        1.43284
N          3.05334       -1.29381        0.87688
C          2.93077       -3.29095        1.84878
H          0.72174       -3.45955        1.59543
C          3.79148       -2.28546        1.48823
C          3.66468       -0.12230        0.33168
H          3.20234       -4.21196        2.36267
H          4.87011       -2.19044        1.59617
C          4.18851       -0.30353       -1.07695
H          4.52900        0.17031        0.94703
H          2.95995        0.71888        0.34807
F          3.24305       -0.67911       -1.94408
F          5.16254       -1.21580       -1.13985
F          4.69799        0.85556       -1.52255
