106
Int2_comp98_2_Sub15.log	Energy: -1414206.6771494
N          0.36167        2.18965        1.19397
C          0.42309        3.27518        0.40576
C          0.70627        4.53951        0.93383
C          0.92488        4.66895        2.29850
C          0.84750        3.53476        3.10312
C          0.56080        2.31274        2.50664
H          0.45411        1.39268        3.08302
H          1.00690        3.58905        4.18115
H          0.76978        5.41227        0.28479
C          0.17899        3.04014       -1.02847
N          0.05130        1.75248       -1.41331
C         -0.16747        1.45906       -2.70345
C         -0.27312        2.44603       -3.67412
C         -0.15083        3.78060       -3.29588
C          0.07692        4.07780       -1.95987
H          0.17066        5.11381       -1.63745
H         -0.44510        2.15908       -4.71239
H         -0.23979        0.39402       -2.93675
Ir         0.18056        0.23665        0.10233
H          0.46499       -0.85214        1.22918
B         -1.92725        0.32401       -0.28623
O         -2.87206        1.16960        0.26357
C         -3.91257        1.39261       -0.69710
C         -5.24493        1.47378        0.02521
H         -5.43447        0.57586        0.62632
H         -6.07259        1.59820       -0.68954
H         -5.24328        2.34086        0.70174
C         -3.60587        2.72626       -1.37064
H         -4.39253        3.01989       -2.08070
H         -3.52837        3.50148       -0.59465
H         -2.64791        2.69036       -1.90765
C         -3.75906        0.16252       -1.66366
O         -2.39367       -0.21423       -1.46771
C         -4.61395       -1.03361       -1.26701
H         -4.45123       -1.29474       -0.21439
H         -5.68558       -0.84898       -1.43116
H         -4.31155       -1.89858       -1.87470
C         -3.96627        0.48135       -3.13436
H         -3.25657        1.24074       -3.48700
H         -3.80779       -0.42978       -3.72943
H         -4.98994        0.83961       -3.32190
B          0.30409       -1.44132       -1.02667
O          0.47500       -2.72350       -0.53498
C          0.32909       -3.64071       -1.62043
C          1.20177       -4.85467       -1.36780
H          2.24055       -4.56369       -1.16518
H          0.82621       -5.40168       -0.49053
H          1.18579       -5.53893       -2.23015
C         -1.14443       -4.03372       -1.67457
H         -1.34177       -4.80146       -2.43752
H         -1.43627       -4.42768       -0.69064
H         -1.76922       -3.15092       -1.87580
C          0.76009       -2.76065       -2.83772
O          0.32501       -1.46290       -2.41624
C          0.08450       -3.10768       -4.15034
H         -1.00485       -2.99239       -4.07943
H          0.44800       -2.43773       -4.94388
H          0.31321       -4.14227       -4.44894
C          2.27399       -2.69389       -3.00847
H          2.76500       -2.45628       -2.05330
H          2.68647       -3.63543       -3.40019
H          2.51608       -1.88577       -3.71381
B         -1.10463       -0.63022        1.48964
O         -1.21650       -0.07894        2.76904
C         -1.68379       -1.10215        3.64967
C         -0.45874       -1.79866        4.23657
H          0.13874       -2.28028        3.44895
H          0.17552       -1.04817        4.73133
H         -0.73472       -2.55942        4.98107
C         -2.50369       -0.46262        4.75460
H         -1.85218        0.16327        5.38237
H         -2.96377       -1.22707        5.39916
H         -3.29304        0.17915        4.34361
C         -2.48856       -2.02699        2.67416
O         -1.80748       -1.82559        1.43294
C         -2.44671       -3.50599        3.01360
H         -2.88257       -3.69702        4.00631
H         -3.02955       -4.06834        2.26953
H         -1.41973       -3.89173        2.99422
C         -3.93079       -1.56677        2.50084
H         -3.96643       -0.50394        2.22242
H         -4.39551       -2.15387        1.69609
H         -4.52101       -1.71981        3.41574
H          1.15512        5.64613        2.72843
H         -0.23125        4.58284       -4.03241
C          2.31746        0.22844       -0.12804
C          2.94077        0.98590       -1.13222
C          3.19823       -0.50959        0.70120
N          4.25287        1.08137       -1.34345
H          2.34157        1.55785       -1.84577
C          2.71621       -1.49432        1.72894
C          4.59054       -0.36090        0.52989
C          5.07520        0.44314       -0.51976
H          2.28289       -0.99451        2.61122
H          3.54445       -2.13363        2.06189
H          1.93584       -2.13485        1.29335
N          5.49703       -1.02966        1.38382
C          6.55081        0.60122       -0.76560
H          7.03233       -0.34738       -1.06306
H          7.08349        0.97621        0.12424
H          6.68948        1.31788       -1.58469
H          6.40750       -1.10626        0.94532
C          5.63230       -0.49780        2.72420
H          6.38777       -1.07731        3.27666
H          4.68372       -0.59387        3.27298
H          5.92355        0.57224        2.75561
