100
Int2_comp169_1_Sub15.log	Energy: -1715478.6732936
N         -0.65791       -2.27910        0.49913
C         -1.06447       -2.95652       -0.58579
C         -1.66491       -4.21410       -0.47021
C         -1.82707       -4.77264        0.79127
C         -1.37256       -4.06944        1.90317
C         -0.79106       -2.82070        1.70929
H         -0.38579       -2.22602        2.53147
H         -1.46483       -4.47646        2.91138
H         -2.01443       -4.74767       -1.35347
C         -0.81968       -2.29822       -1.88412
N         -0.33952       -1.03857       -1.83869
C         -0.04460       -0.39094       -2.97255
C         -0.22121       -0.97914       -4.21870
C         -0.72447       -2.27399       -4.28809
C         -1.02614       -2.94010       -3.10752
H         -1.40702       -3.96002       -3.13537
H          0.02990       -0.41406       -5.11721
H          0.33350        0.62723       -2.84808
Ir        -0.10512       -0.12326        0.09253
H         -0.21105        0.60867        1.51026
B          1.92849       -0.58844       -0.40379
O          2.59799       -1.76750       -0.13814
C          3.55509       -1.99561       -1.18101
C          4.79538       -2.63354       -0.58317
H          5.21060       -2.02466        0.22974
H          5.57357       -2.77386       -1.34865
H          4.53869       -3.62009       -0.17049
C          2.90134       -2.95457       -2.17097
H          3.58982       -3.24747       -2.97674
H          2.59110       -3.86028       -1.62995
H          2.00457       -2.50895       -2.62427
C          3.76974       -0.55481       -1.77030
O          2.55424        0.10770       -1.41172
C          4.90878        0.20845       -1.10793
H          4.80508        0.19350       -0.01629
H          5.89284       -0.20010       -1.38009
H          4.86355        1.25765       -1.43368
C          3.92086       -0.50144       -3.28072
H          3.03864       -0.91055       -3.78967
H          4.03594        0.54539       -3.59715
H          4.81048       -1.05955       -3.61013
B          0.21365        1.81830       -0.42288
O          0.16295        2.88778        0.45161
C          0.72392        4.02552       -0.20746
C          0.04947        5.28259        0.30751
H         -1.04244        5.21494        0.22074
H          0.29634        5.42302        1.37009
H          0.39550        6.17022       -0.24425
C          2.21404        4.04439        0.12099
H          2.71656        4.93033       -0.29481
H          2.33078        4.05032        1.21379
H          2.70552        3.13545       -0.25492
C          0.44403        3.69681       -1.71103
O          0.49517        2.26614       -1.70417
C          1.48534        4.21727       -2.68398
H          2.47210        3.78360       -2.47683
H          1.20222        3.94390       -3.71149
H          1.55968        5.31442       -2.63309
C         -0.95580        4.10518       -2.15469
H         -1.71308        3.75706       -1.43862
H         -1.04622        5.19559       -2.26774
H         -1.17632        3.63264       -3.12228
B          1.31725        0.03193        1.60065
O          1.31653       -0.88448        2.65651
C          1.96644       -0.26738        3.77017
C          0.89224        0.44526        4.58786
H          0.40455        1.23493        3.99734
H          0.12329       -0.28561        4.87894
H          1.30231        0.89546        5.50340
C          2.64009       -1.33997        4.60510
H          1.87691       -1.98740        5.06204
H          3.23504       -0.89332        5.41626
H          3.29387       -1.97118        3.99016
C          2.94183        0.73225        3.06147
O          2.24119        1.03313        1.85129
C          3.18842        2.02731        3.81395
H          3.64351        1.83300        4.79733
H          3.87821        2.66042        3.23704
H          2.25750        2.59036        3.95654
C          4.26678        0.08077        2.68518
H          4.09526       -0.84881        2.12370
H          4.83145        0.77473        2.04667
H          4.87887       -0.14230        3.57083
H         -2.30204       -5.74980        0.90234
H         -0.87901       -2.76531       -5.25111
C         -2.20433        0.20489        0.03686
C         -3.00775       -0.11943        1.13463
C         -2.94798        0.69908       -1.03919
C         -4.40889       -0.00307        1.14521
H         -2.53646       -0.48608        2.05414
F         -2.31187        1.09174       -2.15514
N         -4.25135        0.81932       -1.09535
C         -4.96977        0.46647       -0.05414
N         -5.15948       -0.38704        2.25856
Cl        -6.70432        0.56099       -0.23867
H         -4.56970       -0.89604        2.90828
C         -5.95208        0.60853        2.95248
H         -6.48247        0.12723        3.78732
H         -6.71048        1.02781        2.27866
H         -5.35207        1.44798        3.35704
