113
Int2_comp181_4_Sub11.log	Energy: -1523754.3040013
N         -0.17794        2.21267        1.08226
C         -0.54638        3.27282        0.34652
C         -0.50118        4.56834        0.86911
C         -0.06162        4.75670        2.17175
C          0.32355        3.64785        2.91999
C          0.24654        2.39059        2.33308
H          0.50418        1.48209        2.87726
H          0.68085        3.74783        3.94600
H         -0.78298        5.42413        0.25808
C         -0.94503        2.98524       -1.04311
N         -0.85400        1.69978       -1.44133
C         -1.15644        1.36810       -2.70408
C         -1.56825        2.31383       -3.63319
C         -1.67396        3.64452       -3.23836
C         -1.35804        3.98055       -1.93111
H         -1.41606        5.01633       -1.60276
H         -1.79877        1.99878       -4.65178
H         -1.06569        0.30594       -2.94687
Ir        -0.27381        0.22557        0.02186
H          0.36407       -0.81032        1.05844
B         -2.41593        0.11862        0.05989
O         -3.28518        0.93590        0.75243
C         -4.52555        1.01326        0.03570
C         -5.66860        1.02676        1.03440
H         -5.63600        0.15451        1.69906
H         -6.64114        1.03885        0.51952
H         -5.59938        1.93037        1.65740
C         -4.50251        2.32361       -0.74223
H         -5.45262        2.50716       -1.26441
H         -4.32587        3.14908       -0.03750
H         -3.69193        2.33371       -1.48305
C         -4.47167       -0.25686       -0.89290
O         -3.07042       -0.53255       -0.96145
C         -5.14278       -1.48251       -0.28831
H         -4.75785       -1.68059        0.71881
H         -6.23577       -1.37187       -0.23980
H         -4.90888       -2.35686       -0.91260
C         -4.98484       -0.03351       -2.30549
H         -4.41437        0.74786       -2.82353
H         -4.87697       -0.96440       -2.88094
H         -6.04916        0.24652       -2.30225
B         -0.28882       -1.47673       -1.08887
O          0.10040       -2.72331       -0.63105
C         -0.30297       -3.69618       -1.59646
C          0.66956       -4.85949       -1.56895
H          1.70542       -4.51933       -1.69708
H          0.59907       -5.37398       -0.59942
H          0.43613       -5.58817       -2.36047
C         -1.70382       -4.15590       -1.20229
H         -2.07370       -4.96301       -1.85193
H         -1.67135       -4.51914       -0.16547
H         -2.40717       -3.31089       -1.23139
C         -0.29351       -2.86086       -2.91887
O         -0.62053       -1.55398       -2.43502
C         -1.33085       -3.27876       -3.94423
H         -2.34720       -3.17269       -3.54386
H         -1.24878       -2.64189       -4.83770
H         -1.17810       -4.32317       -4.25682
C          1.08824       -2.77456       -3.55736
H          1.84316       -2.47174       -2.81732
H          1.39244       -3.72900       -4.01173
H          1.06714       -2.00708       -4.34489
B         -1.17991       -0.73368        1.63329
O         -1.09331       -0.17255        2.90679
C         -1.25743       -1.22405        3.85970
C          0.13071       -1.77534        4.17570
H          0.60235       -2.19987        3.27719
H          0.76691       -0.95334        4.53550
H          0.09846       -2.55144        4.95403
C         -1.89473       -0.65602        5.11385
H         -1.19889        0.04764        5.59420
H         -2.12492       -1.45331        5.83692
H         -2.81715       -0.10992        4.87972
C         -2.14279       -2.24475        3.06657
O         -1.76138       -1.98947        1.71136
C         -1.87033       -3.70549        3.37753
H         -2.06328       -3.92710        4.43845
H         -2.53291       -4.33897        2.76976
H         -0.83485       -3.97851        3.13851
C         -3.63061       -1.94710        3.20231
H         -3.84050       -0.89799        2.94951
H         -4.18614       -2.59210        2.50714
H         -3.99597       -2.15071        4.21903
H         -0.01134        5.76237        2.59456
H         -1.99206        4.41572       -3.94293
C          1.74002        0.38853       -0.61399
C          2.48069        1.43635       -1.12647
C          2.69802       -0.68495       -0.57434
O          3.78012        1.07323       -1.39268
C          2.16690        2.78605       -1.40085
C          3.89457       -0.22174       -1.04978
H          2.49946       -1.69863       -0.23039
N          1.89841        3.89832       -1.61305
C          5.23630       -0.83642       -1.20415
H          5.15077       -1.90909       -0.96718
C          6.30870       -0.19042       -0.31950
H          5.55243       -0.76575       -2.25975
H          6.34097        0.88443       -0.57915
C          7.68883       -0.78217       -0.59935
H          7.93940       -0.66243       -1.66688
H          7.65321       -1.87167       -0.40973
C          8.76879       -0.15289        0.27412
H          9.74524       -0.62259        0.07190
H          8.87515        0.91305        0.00276
C          8.42152       -0.25887        1.75526
H          9.19207        0.23761        2.36752
H          8.42669       -1.32357        2.05272
C          7.04595        0.33302        2.04304
H          7.07246        1.42141        1.85332
H          6.78935        0.21161        3.10812
C          5.97013       -0.29816        1.16672
H          5.86362       -1.36824        1.42817
H          4.98938        0.16437        1.36312
