99
Int2_comp43_4_Sub17.log	Energy: -1732779.5562661
N         -0.91285        2.13623        1.38221
C         -1.41406        3.10860        0.60236
C         -2.10769        4.19257        1.14934
C         -2.25472        4.27502        2.52793
C         -1.70063        3.27693        3.32426
C         -1.04211        2.21998        2.70589
H         -0.62113        1.39259        3.27594
H         -1.78005        3.30539        4.41201
H         -2.52603        4.96768        0.50817
C         -1.13548        2.97853       -0.83907
N         -0.46904        1.86985       -1.22476
C         -0.14092        1.70157       -2.51331
C         -0.45660        2.64649       -3.48138
C         -1.14138        3.79831       -3.10279
C         -1.48416        3.96233       -1.76814
H         -2.01405        4.85732       -1.44557
H         -0.16244        2.47023       -4.51696
H          0.38478        0.77054       -2.74674
Ir        -0.02403        0.38467        0.26819
H          0.47071       -0.61417        1.41290
B         -1.89622       -0.27228       -0.53620
O         -3.15570        0.20075       -0.22376
C         -4.01758        0.02927       -1.35791
C         -5.39211       -0.39070       -0.86975
H         -5.34303       -1.29821       -0.25543
H         -6.07073       -0.57654       -1.71590
H         -5.82342        0.41231       -0.25435
C         -4.10709        1.38314       -2.05179
H         -4.81667        1.36747       -2.89160
H         -4.44681        2.13195       -1.32141
H         -3.12752        1.70146       -2.43235
C         -3.25895       -1.05339       -2.21322
O         -1.91392       -0.93205       -1.74487
C         -3.70832       -2.47975       -1.92804
H         -3.66664       -2.69269       -0.85358
H         -4.72702       -2.67239       -2.29458
H         -3.02015       -3.17394       -2.43119
C         -3.26754       -0.80058       -3.71145
H         -2.80487        0.16276       -3.96124
H         -2.68977       -1.58940       -4.21460
H         -4.29237       -0.81745       -4.11225
B          0.82313       -1.07673       -0.86525
O          1.30817       -2.27191       -0.37505
C          1.65269       -3.11200       -1.47839
C          2.84551       -3.96663       -1.09316
H          3.67561       -3.35116       -0.72249
H          2.55515       -4.66090       -0.29108
H          3.19856       -4.56183       -1.94930
C          0.43159       -3.98091       -1.76337
H          0.62062       -4.71594       -2.55971
H          0.16458       -4.51672       -0.84140
H         -0.42796       -3.35343       -2.04064
C          1.93367       -2.06844       -2.61260
O          1.08508       -0.98062       -2.22488
C          1.53837       -2.52318       -4.00556
H          0.46267       -2.73295       -4.06476
H          1.77273       -1.73302       -4.73455
H          2.09391       -3.42767       -4.29677
C          3.36733       -1.55079       -2.60808
H          3.66779       -1.21788       -1.60505
H          4.07912       -2.31244       -2.95826
H          3.43254       -0.68173       -3.27906
B         -1.13834       -0.97947        1.37970
O         -1.65651       -0.59523        2.61593
C         -1.84888       -1.77775        3.39484
C         -0.56190       -2.02480        4.17761
H          0.28750       -2.19795        3.50056
H         -0.33578       -1.13451        4.78269
H         -0.65062       -2.88687        4.85439
C         -3.00826       -1.55456        4.34760
H         -2.73806       -0.78064        5.08124
H         -3.24998       -2.47562        4.89952
H         -3.90396       -1.21414        3.81294
C         -2.09496       -2.85765        2.28687
O         -1.35123       -2.33435        1.18173
C         -1.56441       -4.24205        2.61247
H         -2.04787       -4.64945        3.51368
H         -1.77558       -4.92127        1.77364
H         -0.47808       -4.22804        2.76536
C         -3.55945       -2.93845        1.87515
H         -3.94046       -1.94406        1.60175
H         -3.64739       -3.59916        1.00134
H         -4.18576       -3.35449        2.67718
H         -2.79216        5.11425        2.97469
H         -1.40528        4.56212       -3.83728
C          2.00672        1.06089        0.41354
C          2.57267        2.30010        0.17759
C          3.04095        0.11718        0.73357
S          4.31080        2.29211        0.31288
C          1.94899        3.61614       -0.16673
C          4.31470        0.62001        0.70752
H          2.84737       -0.93397        0.95017
H          2.66631        4.44090       -0.04627
H          1.09600        3.82784        0.49234
H          1.59083        3.64756       -1.20839
C          5.56886       -0.12991        0.96879
F          5.33687       -1.44964        1.00942
F          6.14758        0.19935        2.13363
F          6.49295        0.08238        0.01980
