100
Int2_comp63_1_Sub17.log	Energy: -1517691.0312257
N         -0.29010        2.28412        1.27953
C         -0.30510        3.33749        0.44678
C         -0.64607        4.61582        0.90129
C         -0.94790        4.79887        2.24398
C         -0.89766        3.70219        3.10030
C         -0.57029        2.45962        2.57076
H         -0.55780        1.55887        3.18382
H         -1.11857        3.79840        4.16442
H         -0.68236        5.45989        0.21334
C          0.10016        3.06245       -0.94408
N          0.31704        1.77191       -1.26829
C          0.76141        1.46124       -2.49081
C          1.00154        2.42529       -3.46093
C          0.77035        3.76159       -3.15034
C          0.31731        4.08063       -1.87785
H          0.14983        5.12098       -1.60218
H          1.36138        2.11945       -4.44425
H          0.89357        0.39343       -2.68101
Ir         0.05559        0.29803        0.27588
H          0.24948       -0.70336        1.50182
B         -1.95438        0.24824       -0.49611
O         -2.68870       -0.76427       -1.07719
C         -3.81957       -0.20700       -1.75741
C         -4.01411       -0.96496       -3.05891
H         -3.08821       -0.99202       -3.64708
H         -4.81231       -0.51225       -3.66690
H         -4.30059       -2.00341       -2.83726
C         -5.04347       -0.37879       -0.86795
H         -5.95485       -0.01132       -1.36146
H         -5.17868       -1.44570       -0.64530
H         -4.91788        0.15853        0.08308
C         -3.40372        1.29432       -1.92002
O         -2.51660        1.47840       -0.81238
C         -2.60126        1.53912       -3.19373
H         -1.79921        0.79526       -3.30030
H         -3.23622        1.50027       -4.09070
H         -2.13845        2.53542       -3.13880
C         -4.53530        2.29914       -1.81420
H         -5.03041        2.24501       -0.83648
H         -4.13232        3.31595       -1.93183
H         -5.28579        2.13611       -2.60261
B          0.38104       -1.39363       -0.79354
O          0.76925       -2.61708       -0.28778
C          0.61557       -3.59779       -1.31459
C          1.65654       -4.68431       -1.12241
H          2.66881       -4.26459       -1.05670
H          1.45372       -5.22320       -0.18552
H          1.62615       -5.41147       -1.94856
C         -0.79235       -4.17078       -1.17977
H         -0.97595       -4.98487       -1.89683
H         -0.90970       -4.56185       -0.15957
H         -1.54732       -3.38233       -1.31390
C          0.79355       -2.73747       -2.60862
O          0.28279       -1.46815       -2.18386
C         -0.00752       -3.21071       -3.80668
H         -1.08348       -3.20275       -3.58999
H          0.17306       -2.54323       -4.66279
H          0.28808       -4.22920       -4.10181
C          2.25759       -2.53452       -2.98427
H          2.83860       -2.18162       -2.11930
H          2.71602       -3.45740       -3.36854
H          2.32285       -1.76846       -3.77180
B         -1.37312       -0.71890        1.40979
O         -2.02412       -0.11385        2.48963
C         -2.41090       -1.14552        3.40224
C         -1.27947       -1.30321        4.41469
H         -0.34150       -1.59458        3.91957
H         -1.11262       -0.33955        4.91907
H         -1.51546       -2.05297        5.18348
C         -3.68774       -0.72713        4.10702
H         -3.49288        0.15625        4.73309
H         -4.05985       -1.53210        4.75885
H         -4.47361       -0.46386        3.38793
C         -2.55137       -2.38952        2.45472
O         -1.64335       -2.07546        1.40445
C         -2.13333       -3.71175        3.07566
H         -2.74592       -3.94709        3.95963
H         -2.27059       -4.51855        2.34089
H         -1.07517       -3.70157        3.36577
C         -3.94336       -2.51767        1.85195
H         -4.27792       -1.55981        1.43829
H         -3.90163       -3.24276        1.02667
H         -4.68092       -2.86477        2.59049
H         -1.21877        5.78893        2.61719
H          0.94712        4.54914       -3.88610
C          2.15633        0.46258        0.44795
C          2.92576        1.61683        0.39757
C          3.10086       -0.59258        0.62574
N          4.25810        1.31729        0.52666
H          2.63235        2.66037        0.27707
C          4.36914       -0.04281        0.67021
H          2.87028       -1.65338        0.70415
C          5.33584        2.27130        0.56316
C          5.67384       -0.72066        0.82462
H          5.77786        2.34465        1.56919
H          4.94614        3.25634        0.27580
H          6.13060        1.98960       -0.14243
F          6.49759       -0.51397       -0.22657
F          5.51968       -2.03766        0.94932
F          6.36299       -0.29256        1.90266
