97
Int2_comp159_0_Sub2.log	Energy: -1916903.4115175
N          1.22114       -1.10930       -1.84984
C          2.09617       -2.03746       -1.42835
C          2.97096       -2.65907       -2.32561
C          2.92045       -2.31720       -3.66968
C          1.98917       -1.37114       -4.09192
C          1.15698       -0.78987       -3.14362
H          0.39126       -0.05667       -3.40531
H          1.90696       -1.07897       -5.13990
H          3.69521       -3.39305       -1.97521
C          2.06166       -2.35446        0.01139
N          1.22780       -1.62124        0.77392
C          1.14039       -1.86752        2.08311
C          1.88733       -2.85970        2.70371
C          2.74870       -3.63152        1.93080
C          2.82988       -3.37839        0.56997
H          3.49183       -3.97227       -0.05800
H          1.78411       -3.01703        3.77826
H          0.43499       -1.24006        2.63204
Ir         0.22892       -0.00045       -0.18687
H         -0.09605        1.40526       -0.87203
B         -1.48587       -1.28415       -0.02319
O         -2.83988       -1.05007        0.13920
C         -3.52622       -2.30685        0.22020
C         -4.68157       -2.16362        1.19273
H         -4.34000       -1.77527        2.16078
H         -5.18458       -3.12939        1.35435
H         -5.41994       -1.45666        0.78691
C         -4.04071       -2.65190       -1.17345
H         -4.58927       -3.60477       -1.17812
H         -4.72912       -1.86681       -1.51553
H         -3.21123       -2.71468       -1.89266
C         -2.38404       -3.26522        0.68195
O         -1.23268       -2.64185        0.10222
C         -2.18576       -3.25475        2.19485
H         -2.10302       -2.22330        2.56862
H         -3.00567       -3.76603        2.72030
H         -1.24615       -3.77647        2.42930
C         -2.48301       -4.68933        0.17022
H         -2.46371       -4.72454       -0.92649
H         -1.62662       -5.27121        0.54130
H         -3.40519       -5.17415        0.52568
B         -0.56036        0.90100        1.46581
O         -0.77326        2.24506        1.66126
C         -1.62448        2.41385        2.79514
C         -1.28134        3.72450        3.47748
H         -0.21021        3.78888        3.70815
H         -1.52940        4.55958        2.80665
H         -1.85582        3.84908        4.40839
C         -3.06192        2.43673        2.28443
H         -3.78099        2.63536        3.09307
H         -3.14756        3.22936        1.52848
H         -3.31523        1.48824        1.78949
C         -1.30659        1.13072        3.63114
O         -0.97433        0.19257        2.60076
C         -2.47006        0.58332        4.43597
H         -3.31034        0.31428        3.78307
H         -2.15638       -0.32114        4.97870
H         -2.81894        1.32009        5.17562
C         -0.07383        1.29243        4.51386
H          0.77084        1.69303        3.93444
H         -0.26354        1.96003        5.36693
H          0.21796        0.30778        4.90934
B         -1.41654        0.72366       -1.25306
O         -1.62939        0.37260       -2.58341
C         -2.51155        1.34162       -3.16395
C         -1.63390        2.37452       -3.86527
H         -0.95176        2.86376       -3.15428
H         -1.02221        1.86582       -4.62558
H         -2.22911        3.14846       -4.37068
C         -3.40886        0.64346       -4.16848
H         -2.80183        0.25294       -4.99863
H         -4.15033        1.34103       -4.58647
H         -3.93794       -0.20142       -3.70977
C         -3.25678        1.92538       -1.90605
O         -2.32462        1.68014       -0.85648
C         -3.52004        3.42104       -1.96998
H         -4.16324        3.67495       -2.82646
H         -4.03451        3.73848       -1.05142
H         -2.58513        3.99071       -2.04301
C         -4.54685        1.18990       -1.56920
H         -4.36524        0.11317       -1.48785
H         -4.90055        1.53762       -0.58804
H         -5.33408        1.37966       -2.31334
H          3.60229       -2.78715       -4.38179
H          3.35114       -4.42352        2.38086
C          2.12410        0.97872       -0.03719
N          3.20504        0.21169        0.17118
C          2.42684        2.35472       -0.23015
C          4.41213        0.71246        0.23473
N          3.63341        2.86985       -0.14706
Cl         1.17623        3.49288       -0.64869
Cl         5.73088       -0.41011        0.47714
C          4.67707        2.07972        0.10358
C          6.04049        2.67934        0.21253
H          6.49207        2.46394        1.19348
H          5.96653        3.76518        0.07629
H          6.71901        2.26213       -0.54800
