99
Int2_comp15_2_Sub8.log	Energy: -1445269.3115329
N          1.41057       -1.76053       -1.12903
C          2.34011       -2.26567       -0.30287
C          3.29194       -3.18402       -0.75650
C          3.26631       -3.58092       -2.08607
C          2.28252       -3.06469       -2.92564
C          1.37243       -2.15337       -2.40283
H          0.56504       -1.72197       -2.99770
H          2.21913       -3.35459       -3.97559
H          4.06298       -3.56255       -0.08694
C          2.28047       -1.80353        1.09636
N          1.39438       -0.82583        1.37426
C          1.27103       -0.37196        2.62723
C          2.02781       -0.88255        3.67347
C          2.94119       -1.89865        3.40788
C          3.06527       -2.36426        2.10712
H          3.77035       -3.16054        1.87500
H          1.89715       -0.47714        4.67768
H          0.55069        0.43592        2.76618
Ir         0.32206        0.02388       -0.28182
H         -0.24348        0.81493       -1.55455
B         -1.22036       -1.10652        0.68016
O         -1.52352       -2.43882        0.49391
C         -2.01354       -2.97620        1.73003
C         -3.09853       -3.99381        1.43000
H         -3.90256       -3.56022        0.82227
H         -3.53512       -4.38905        2.35973
H         -2.66635       -4.83566        0.86980
C         -0.83102       -3.66040        2.40845
H         -1.12756       -4.16794        3.33772
H         -0.41610       -4.40931        1.71862
H         -0.03368       -2.94113        2.64275
C         -2.50364       -1.69223        2.49221
O         -1.72001       -0.65836        1.88544
C         -3.96702       -1.35844        2.23711
H         -4.17551       -1.32243        1.16098
H         -4.64267       -2.08599        2.70971
H         -4.18243       -0.36362        2.65241
C         -2.22386       -1.69474        3.98492
H         -1.14995       -1.78211        4.19413
H         -2.57756       -0.75035        4.42394
H         -2.75019       -2.52192        4.48492
B         -0.45771        1.69367        0.58862
O         -1.37020        2.56953        0.03311
C         -1.90252        3.38334        1.07536
C         -2.26960        4.74186        0.50830
H         -1.41978        5.20427       -0.01077
H         -3.08747        4.62548       -0.21783
H         -2.61134        5.42368        1.30223
C         -3.14385        2.67261        1.60738
H         -3.67054        3.26709        2.36881
H         -3.82415        2.48817        0.76392
H         -2.87063        1.69415        2.02789
C         -0.72722        3.39460        2.10720
O         -0.12583        2.11761        1.87318
C         -1.15105        3.48386        3.56107
H         -1.78309        2.63171        3.84247
H         -0.26192        3.47867        4.20924
H         -1.70629        4.41474        3.75345
C          0.32716        4.44974        1.79133
H          0.62155        4.38989        0.73408
H         -0.02721        5.46835        2.00728
H          1.22007        4.25326        2.40228
B         -1.44682       -0.29889       -1.34079
O         -1.42302       -1.10292       -2.48254
C         -2.54828       -0.74911       -3.28922
C         -2.09923        0.36279       -4.23402
H         -1.78479        1.25436       -3.67142
H         -1.23594        0.00802       -4.81596
H         -2.89395        0.65231       -4.93672
C         -2.99256       -1.96566       -4.07883
H         -2.21476       -2.23872       -4.80734
H         -3.91970       -1.75839       -4.63465
H         -3.15706       -2.82853       -3.42131
C         -3.56728       -0.24615       -2.21280
O         -2.70337        0.26331       -1.19345
C         -4.48399        0.87314       -2.67230
H         -5.10418        0.55314       -3.52373
H         -5.15462        1.15845       -1.84858
H         -3.91200        1.76384       -2.96098
C         -4.38334       -1.38427       -1.61249
H         -3.72288       -2.18445       -1.24901
H         -4.96012       -0.99510       -0.76155
H         -5.09319       -1.80496       -2.33903
H          4.01130       -4.28512       -2.46276
H          3.55404       -2.32537        4.20477
C          2.14292        1.03802       -0.66311
C          2.25671        2.31115       -1.28662
N          3.28070        0.42875       -0.33197
C          3.52977        2.84459       -1.49810
O          1.11788        2.92170       -1.63395
C          4.45261        1.01319       -0.58389
N          4.64067        2.19369       -1.14726
H          3.67046        3.82451       -1.96493
C          5.61880        0.24563       -0.19767
N          6.52113       -0.40819        0.12010
C          1.15790        4.19965       -2.20210
H          1.64653        4.92942       -1.53240
H          1.68349        4.20079       -3.17338
H          0.11365        4.49938       -2.35520
