102
Int2_comp16_3_Sub13.log	Energy: -1365660.8084657
N         -0.09997       -2.30508        1.14397
C         -0.46085       -3.28360        0.30029
C         -0.61739       -4.60013        0.74544
C         -0.39423       -4.89227        2.08416
C         -0.00720       -3.86663        2.94287
C          0.13105       -2.58326        2.42652
H          0.46214       -1.73883        3.03437
H          0.18857       -4.05158        4.00025
H         -0.91982       -5.38841        0.05695
C         -0.65124       -2.88212       -1.10611
N         -0.52169       -1.56918       -1.38042
C         -0.65494       -1.12960       -2.63699
C         -0.91815       -1.99266       -3.69299
C         -1.04667       -3.35405       -3.43263
C         -0.91123       -3.80112       -2.12623
H         -1.00060       -4.86229       -1.89846
H         -1.01846       -1.59070       -4.70219
H         -0.54884       -0.05005       -2.77155
Ir        -0.21050       -0.24239        0.27535
H         -0.27672        0.69472        1.56930
B          1.75926       -0.30977       -0.57732
O          2.74817       -1.24293       -0.32802
C          3.51479       -1.43435       -1.52241
C          4.96873       -1.65216       -1.14471
H          5.35353       -0.82733       -0.53171
H          5.59970       -1.74741       -2.04150
H          5.06083       -2.57919       -0.56022
C          2.96184       -2.68250       -2.20351
H          3.53922       -2.95290       -3.09954
H          3.00750       -3.51973       -1.49201
H          1.91086       -2.54528       -2.49410
C          3.23061       -0.11494       -2.32910
O          1.98202        0.31689       -1.78465
C          4.24466        0.98959       -2.06241
H          4.36892        1.15332       -0.98528
H          5.22581        0.76563       -2.50604
H          3.86740        1.92466       -2.50107
C          3.06205       -0.30982       -3.82636
H          2.23125       -0.99030       -4.05321
H          2.83994        0.65967       -4.29560
H          3.98165       -0.70887       -4.28097
B         -0.56903        1.55545       -0.59158
O         -0.77080        2.74074        0.09833
C         -0.76739        3.81338       -0.84240
C         -1.68386        4.91532       -0.34507
H         -2.68620        4.52921       -0.11841
H         -1.27102        5.34725        0.57842
H         -1.77411        5.72175       -1.08928
C          0.67017        4.31605       -0.94360
H          0.75723        5.19529       -1.59934
H          1.01531        4.58835        0.06380
H          1.33298        3.51915       -1.31108
C         -1.24692        3.09775       -2.14713
O         -0.73052        1.77845       -1.95579
C         -0.68077        3.66805       -3.43402
H          0.41426        3.59604       -3.45013
H         -1.07097        3.10389       -4.29444
H         -0.97040        4.72276       -3.55968
C         -2.76567        2.98048       -2.23340
H         -3.17645        2.56285       -1.30216
H         -3.24422        3.94962       -2.43851
H         -3.02018        2.28847       -3.04972
B          1.37504        0.55900        1.36192
O          1.83207       -0.07042        2.52518
C          2.44251        0.92393        3.34793
C          1.35649        1.50157        4.25239
H          0.56764        1.98863        3.66033
H          0.89429        0.68161        4.82154
H          1.76099        2.23265        4.96753
C          3.53204        0.27543        4.18127
H          3.08073       -0.42705        4.89766
H          4.09408        1.02950        4.75331
H          4.23179       -0.28879        3.55188
C          2.94627        1.95648        2.28412
O          1.99388        1.79584        1.23182
C          2.92857        3.40489        2.73873
H          3.58172        3.55443        3.61232
H          3.29281        4.04873        1.92473
H          1.91194        3.73014        2.99318
C          4.31970        1.59458        1.73121
H          4.33454        0.54971        1.38882
H          4.53584        2.24565        0.87235
H          5.11383        1.73823        2.47811
H         -0.51861       -5.91317        2.45217
H         -1.24871       -4.06296       -4.23867
C         -2.30058       -0.35244        0.48924
C         -3.21056        0.62309        0.99372
N         -2.98171       -1.44235        0.13057
C         -4.46978        0.05686        0.91717
H         -2.96167        1.61775        1.35796
N         -4.27187       -1.17892        0.39301
C         -5.82848        0.59607        1.24847
H         -4.97407       -1.87615        0.18983
H         -5.65211        1.54742        1.77649
C         -6.62871        0.90512       -0.01912
H         -7.60038        1.36315        0.22523
H         -6.07503        1.59329       -0.67464
H         -6.82753       -0.01359       -0.59498
C         -6.60289       -0.32725        2.18891
H         -6.03053       -0.53186        3.10555
H         -7.56737        0.12035        2.47556
H         -6.82468       -1.29551        1.70976
