100
Int2_comp15_2_Sub15.log	Energy: -1432822.9292999
N          0.55434       -2.03987       -1.27707
C          1.21415       -2.92327       -0.51177
C          1.75056       -4.09293       -1.05777
C          1.58809       -4.33969       -2.41410
C          0.87861       -3.42508       -3.18870
C          0.37644       -2.28327       -2.57533
H         -0.20624       -1.53296       -3.11436
H          0.71689       -3.58582       -4.25566
H          2.30918       -4.79214       -0.43712
C          1.30001       -2.59318        0.92405
N          0.78897       -1.40371        1.30288
C          0.78299       -1.05420        2.59469
C          1.29502       -1.88574        3.58177
C          1.82945       -3.11709        3.21136
C          1.82701       -3.47483        1.87111
H          2.23494       -4.43473        1.55906
H          1.27451       -1.56021        4.62268
H          0.35873       -0.07135        2.81393
Ir         0.16793       -0.08366       -0.26379
H          0.00536        0.92416       -1.49626
B         -1.73396       -0.73783        0.50799
O         -2.44524       -1.85466        0.12270
C         -3.13255       -2.37731        1.26695
C         -4.47952       -2.91971        0.82567
H         -5.06875       -2.15764        0.30006
H         -5.06097       -3.28051        1.68761
H         -4.32713       -3.76364        0.13730
C         -2.26973       -3.50897        1.81621
H         -2.75319       -4.02269        2.65967
H         -2.09731       -4.24051        1.01359
H         -1.28996       -3.13829        2.14873
C         -3.20123       -1.13251        2.22565
O         -2.11218       -0.32697        1.76503
C         -4.47137       -0.30867        2.06221
H         -4.64466       -0.05971        1.00843
H         -5.35505       -0.83220        2.45512
H         -4.35007        0.63486        2.61364
C         -2.97821       -1.44949        3.69448
H         -1.99648       -1.91006        3.86384
H         -3.01767       -0.51763        4.27709
H         -3.75746       -2.12634        4.07657
B          0.05008        1.67598        0.74542
O          0.05773        2.92781        0.14455
C         -0.25467        3.90507        1.13898
C          0.45355        5.20353        0.80135
H          1.53238        5.04962        0.66694
H          0.04846        5.60994       -0.13704
H          0.30141        5.95424        1.59201
C         -1.76745        4.10063        1.11748
H         -2.09219        4.88675        1.81512
H         -2.06884        4.38401        0.09920
H         -2.28348        3.16052        1.35941
C          0.24405        3.20396        2.44466
O          0.04166        1.82425        2.12642
C         -0.54584        3.54259        3.69462
H         -1.59661        3.24372        3.59069
H         -0.12440        3.00581        4.55759
H         -0.50131        4.62119        3.91032
C          1.73798        3.39691        2.68520
H          2.31357        3.16007        1.77813
H          1.97695        4.42245        3.00316
H          2.06184        2.70531        3.47666
B         -1.56659        0.41708       -1.31044
O         -1.87811       -0.20940       -2.51926
C         -2.71373        0.67596       -3.26724
C         -1.80227        1.54863       -4.12634
H         -1.13647        2.16066       -3.50002
H         -1.17450        0.89812       -4.75278
H         -2.37411        2.21634       -4.78702
C         -3.64002       -0.14341       -4.14601
H         -3.05223       -0.67100       -4.91168
H         -4.36847        0.50102       -4.66141
H         -4.18218       -0.89621       -3.56006
C         -3.42254        1.48692       -2.13062
O         -2.44170        1.47064       -1.08990
C         -3.74124        2.93008       -2.47670
H         -4.42435        2.98856       -3.33796
H         -4.23065        3.41381       -1.61872
H         -2.82982        3.49648       -2.70622
C         -4.66837        0.78294       -1.60689
H         -4.44302       -0.26315       -1.35393
H         -5.00607        1.29670       -0.69573
H         -5.48921        0.80449       -2.33809
H          2.01274       -5.24088       -2.86173
H          2.24503       -3.79566        3.95944
C          2.24067        0.27935       -0.47850
C          2.80466        1.50208       -0.83232
N          3.06968       -0.77470       -0.27435
C          4.20816        1.60422       -0.95917
H          2.16739        2.37563       -0.99006
C          4.36633       -0.57870       -0.42535
N          4.99737        0.54042       -0.75394
N          4.79479        2.78412       -1.28292
C          5.19087       -1.75585       -0.20022
N          5.80889       -2.71768       -0.01440
H          4.17336        3.56228       -1.45034
C          6.20817        2.97781       -1.44653
H          6.47044        3.24530       -2.48467
H          6.70936        2.03501       -1.19494
H          6.58864        3.76823       -0.77822
