102
Int2_comp34_6_Sub14.log	Energy: -1438373.4420691
N         -0.62899       -2.12910        1.17868
C         -0.99604       -3.06025        0.28535
C         -1.20450       -4.38850        0.66803
C         -1.05204       -4.74038        2.00263
C         -0.69645       -3.75710        2.92105
C         -0.48855       -2.46179        2.46087
H         -0.17183       -1.65813        3.12522
H         -0.57295       -3.98389        3.98108
H         -1.49148       -5.14156       -0.06495
C         -1.20234       -2.58204       -1.09362
N         -0.99482       -1.26792       -1.31287
C         -1.21080       -0.75096       -2.52872
C         -1.64589       -1.53019       -3.59360
C         -1.85507       -2.89104       -3.38997
C         -1.62933       -3.41937       -2.12667
H         -1.78918       -4.48045       -1.94143
H         -1.81243       -1.06410       -4.56573
H         -1.01505        0.32091       -2.62586
Ir        -0.28373       -0.06871        0.33136
H          0.03533        0.83750        1.60761
B          1.52227       -0.59741       -0.69561
O          2.22647       -1.78194       -0.60023
C          2.89764       -2.03163       -1.84239
C          4.26377       -2.62568       -1.55042
H          4.85348       -1.97771       -0.89013
H          4.83016       -2.78763       -2.48001
H          4.14096       -3.59729       -1.04996
C          2.04826       -3.04019       -2.60712
H          2.52959       -3.35513       -3.54433
H          1.90054       -3.92754       -1.97449
H          1.05893       -2.62826       -2.84679
C          2.92422       -0.60944       -2.51715
O          1.85319        0.06774       -1.85661
C          4.19778        0.17539       -2.23327
H          4.39658        0.21788       -1.15606
H          5.07086       -0.25673       -2.74351
H          4.06289        1.20739       -2.58765
C          2.64163       -0.60911       -4.01015
H          1.65492       -1.03422       -4.23399
H          2.65175        0.42647       -4.38008
H          3.40687       -1.17746       -4.56030
B         -0.12569        1.75691       -0.54415
O          0.27834        2.91318        0.09791
C          0.50024        3.92085       -0.88854
C          0.18510        5.27902       -0.29134
H         -0.82384        5.30111        0.14090
H          0.90275        5.50168        0.51184
H          0.26325        6.07290       -1.05010
C          1.97162        3.83350       -1.28417
H          2.25937        4.62326       -1.99406
H          2.58132        3.93177       -0.37485
H          2.19136        2.84871       -1.72168
C         -0.46115        3.46791       -2.03684
O         -0.47254        2.04775       -1.85862
C          0.02822        3.78304       -3.43824
H          0.98307        3.28320       -3.64583
H         -0.70793        3.43228       -4.17707
H          0.15679        4.86758       -3.57651
C         -1.89122        3.96025       -1.84430
H         -2.25243        3.73000       -0.83157
H         -1.98169        5.04185       -2.02312
H         -2.54509        3.43519       -2.55595
B          1.52385        0.15938        1.33769
O          1.79687       -0.63794        2.45041
C          2.74063        0.05765        3.26553
C          1.95084        0.91092        4.25501
H          1.33599        1.65762        3.73125
H          1.27519        0.25881        4.82784
H          2.60826        1.43387        4.96468
C          3.59032       -0.95648        4.00833
H          2.96278       -1.50977        4.72266
H          4.39386       -0.46119        4.57452
H          4.03648       -1.68391        3.31853
C          3.50703        0.92127        2.20702
O          2.51058        1.12506        1.20197
C          3.97545        2.27701        2.70432
H          4.67908        2.16966        3.54420
H          4.49188        2.80679        1.89046
H          3.12984        2.89880        3.02393
C          4.66769        0.16340        1.57455
H          4.32900       -0.80658        1.18315
H          5.06603        0.75718        0.73986
H          5.48457       -0.00430        2.29105
H         -1.21444       -5.77228        2.32163
H         -2.19048       -3.53608       -4.20505
C         -2.29142        0.52467        0.74721
C         -3.42690       -0.23605        0.52822
C         -2.59149        1.80399        1.28909
C         -4.72636        0.19542        0.80220
O         -3.51429       -1.54318        0.07591
C         -3.87809        2.26906        1.57325
H         -1.75885        2.48427        1.48743
C         -4.99215        1.44153        1.32420
O         -5.61559       -0.80169        0.51029
C         -4.86911       -1.74687       -0.22173
C         -4.08616        3.65144        2.12592
H         -6.01440        1.76279        1.53286
H         -5.04458       -1.59504       -1.31002
H         -5.16880       -2.76524        0.07138
H         -4.69307        4.27144        1.44529
H         -3.12597        4.16457        2.27985
H         -4.61389        3.62728        3.09357
