99
Int2_comp163_4_Sub17.log	Energy: -1857445.6567004
N         -0.73187        2.31584        1.13160
C         -1.34536        3.21247        0.34327
C         -1.83803        4.41409        0.86171
C         -1.66331        4.69213        2.21091
C         -0.99466        3.76721        3.00708
C         -0.54862        2.58693        2.42333
H         -0.04945        1.81139        3.00314
H         -0.82113        3.94740        4.06902
H         -2.34044        5.13441        0.21734
C         -1.41130        2.87286       -1.08970
N         -0.80705        1.72566       -1.46396
C         -0.75897        1.39109       -2.75901
C         -1.32806        2.18408       -3.74794
C         -1.97436        3.35933       -3.37943
C         -2.01223        3.70565       -2.03558
H         -2.50659        4.62377       -1.72196
H         -1.25765        1.87151       -4.79069
H         -0.23671        0.45816       -2.98543
Ir        -0.07503        0.41858        0.09512
H          0.59409       -0.51515        1.20367
B         -2.01570       -0.32616       -0.33915
O         -3.22601        0.08406        0.18574
C         -4.26876       -0.22982       -0.74963
C         -5.50887       -0.65858        0.01197
H         -5.30045       -1.49992        0.68368
H         -6.31126       -0.95321       -0.68141
H         -5.87469        0.18082        0.62132
C         -4.55450        1.04564       -1.53327
H         -5.40436        0.92378       -2.22034
H         -4.79250        1.85012       -0.82228
H         -3.67771        1.35765       -2.11650
C         -3.61240       -1.35287       -1.62809
O         -2.21630       -1.06992       -1.48475
C         -3.84219       -2.75685       -1.08484
H         -3.52696       -2.81874       -0.03570
H         -4.89413       -3.06551       -1.17003
H         -3.22393       -3.46334       -1.65555
C         -3.96950       -1.29630       -3.10277
H         -3.66163       -0.34526       -3.55620
H         -3.45172       -2.10741       -3.63527
H         -5.05193       -1.42716       -3.25307
B          0.55679       -1.15683       -1.03638
O          0.71416       -2.46404       -0.64893
C          1.05589       -3.25156       -1.78926
C          2.03008       -4.33327       -1.36066
H          2.89103       -3.90389       -0.83276
H          1.52530       -5.02835       -0.67385
H          2.39177       -4.90832       -2.22697
C         -0.23773       -3.86931       -2.30898
H         -0.06156       -4.55424       -3.15157
H         -0.70599       -4.43219       -1.48861
H         -0.93985       -3.08132       -2.61523
C          1.65382       -2.18340       -2.76790
O          0.96976       -0.99336       -2.35574
C          1.36866       -2.43210       -4.23754
H          0.28981       -2.45280       -4.43959
H          1.81561       -1.62857       -4.84184
H          1.80663       -3.38682       -4.56647
C          3.14379       -1.94200       -2.55282
H          3.37501       -1.78027       -1.49125
H          3.75157       -2.78200       -2.91971
H          3.43673       -1.03459       -3.10067
B         -0.92437       -0.75360        1.58196
O         -1.17210       -0.17875        2.82579
C         -1.28628       -1.23726        3.78056
C          0.10728       -1.48865        4.34977
H          0.80968       -1.79829        3.56229
H          0.48754       -0.55377        4.78709
H          0.09786       -2.25728        5.13596
C         -2.23379       -0.80325        4.88305
H         -1.78696        0.02976        5.44568
H         -2.42203       -1.62668        5.58865
H         -3.19191       -0.45910        4.47378
C         -1.79772       -2.41961        2.88916
O         -1.23917       -2.09901        1.60955
C         -1.29841       -3.79253        3.29952
H         -1.63069       -4.04572        4.31803
H         -1.69928       -4.54892        2.60932
H         -0.20354       -3.84826        3.25631
C         -3.31526       -2.42443        2.75741
H         -3.67853       -1.44270        2.42299
H         -3.60831       -3.17600        2.01077
H         -3.80318       -2.68644        3.70715
H         -2.03778        5.62742        2.63263
H         -2.44137        4.00313       -4.12775
C          1.96812        1.16752       -0.01604
C          2.29051        2.40793       -0.57756
C          3.10875        0.46452        0.41898
C          3.57048        2.91075       -0.76807
F          1.30215        3.22848       -0.98080
Cl         2.92890       -1.07305        1.23693
C          4.43235        0.91264        0.24467
C          4.65247        2.14662       -0.36315
H          3.69691        3.89122       -1.22991
C          5.62895        0.10454        0.67799
H          5.67150        2.50417       -0.50774
F          5.68277       -1.08920        0.07357
F          5.65524       -0.11534        1.99525
F          6.77319        0.73432        0.37377
