107
Int2_comp171_9_Sub13.log	Energy: -1485129.0604746
N          0.18232       -2.49055        0.28628
C          0.85957       -2.74487        1.41842
C          1.20650       -4.04957        1.77929
C          0.83349       -5.10148        0.95093
C          0.11391       -4.82329       -0.20562
C         -0.19429       -3.49835       -0.50094
H         -0.76721       -3.21694       -1.38476
H         -0.20580       -5.61455       -0.88506
H          1.76701       -4.24684        2.69235
C          1.18647       -1.57133        2.25147
N          0.82710       -0.36608        1.76490
C          1.05006        0.74105        2.48612
C          1.66130        0.69848        3.73270
C          2.05382       -0.53444        4.24572
C          1.81074       -1.67830        3.49806
H          2.09942       -2.65453        3.88442
H          1.82565        1.62660        4.28185
H          0.73230        1.67756        2.02016
Ir        -0.01577       -0.28761       -0.22120
H         -0.39944       -0.25224       -1.76970
B         -1.74393        0.02648        1.00946
O         -2.53366       -0.93227        1.60789
C         -3.04923       -0.40590        2.83833
C         -4.46697       -0.91000        3.03446
H         -5.10617       -0.65880        2.17896
H         -4.91416       -0.48274        3.94476
H         -4.45597       -2.00461        3.13923
C         -2.14995       -0.93618        3.95035
H         -2.51118       -0.64299        4.94660
H         -2.13315       -2.03419        3.89425
H         -1.11788       -0.57655        3.83470
C         -2.92301        1.14709        2.62852
O         -1.88533        1.24109        1.64621
C         -4.16963        1.78096        2.02697
H         -4.47334        1.25241        1.11532
H         -5.01045        1.78853        2.73551
H         -3.93988        2.81956        1.74906
C         -2.49084        1.92145        3.86151
H         -1.51529        1.58121        4.23213
H         -2.40248        2.98819        3.60900
H         -3.23018        1.82201        4.67064
B          0.01760        1.70785       -0.59886
O         -0.44514        2.32220       -1.74217
C         -0.55862        3.72119       -1.47726
C         -0.34392        4.49144       -2.76570
H          0.59866        4.20745       -3.25100
H         -1.16323        4.26915       -3.46468
H         -0.33664        5.57668       -2.58087
C         -1.96670        3.95684       -0.93784
H         -2.17429        5.02481       -0.77458
H         -2.68731        3.55939       -1.66606
H         -2.11476        3.40598        0.00243
C          0.54550        3.93207       -0.38935
O          0.55118        2.65677        0.26844
C          0.23774        5.00940        0.63319
H         -0.68012        4.77778        1.18870
H          1.06486        5.08552        1.35505
H          0.12042        5.99041        0.14800
C          1.93081        4.14080       -0.98765
H          2.15952        3.35857       -1.72600
H          2.02497        5.12442       -1.47031
H          2.67979        4.07720       -0.18585
B         -1.91090       -0.47459       -1.08868
O         -2.32874       -1.72157       -1.53715
C         -3.30322       -1.50356       -2.56503
C         -2.55768       -1.40319       -3.89171
H         -1.88922       -0.52998       -3.90590
H         -1.92628       -2.29282       -4.02203
H         -3.25071       -1.32811       -4.74235
C         -4.26396       -2.67672       -2.58419
H         -3.73172       -3.58091       -2.91423
H         -5.09162       -2.49596       -3.28684
H         -4.67916       -2.87125       -1.58705
C         -3.92687       -0.13821       -2.12103
O         -2.82410        0.49633       -1.45921
C         -4.38572        0.75463       -3.25879
H         -5.16989        0.26221       -3.85403
H         -4.80132        1.68750       -2.85012
H         -3.55056        1.01847       -3.91931
C         -5.04546       -0.31492       -1.10204
H         -4.70841       -0.93717       -0.26059
H         -5.33322        0.67267       -0.71425
H         -5.93687       -0.77407       -1.55282
H          1.10233       -6.12754        1.21125
H          2.54167       -0.60787        5.22000
C          1.99301       -0.35220       -0.89120
C          3.01432        0.33072       -0.21302
C          2.42166       -1.13958       -1.99106
C          4.37268        0.22560       -0.50965
H          2.73524        0.99258        0.60954
C          3.77075       -1.25215       -2.34326
C          1.47772       -1.87318       -2.78339
C          4.75026       -0.58880       -1.59882
C          5.40452        0.91664        0.35465
H          4.06403       -1.86975       -3.19403
N          0.74289       -2.48977       -3.43717
C          6.12728       -0.75244       -1.95270
N          7.24333       -0.89246       -2.23925
H          6.38094        0.81057       -0.14513
C          5.12574        2.40864        0.51710
H          5.93556        2.88924        1.08719
H          5.04931        2.91037       -0.45865
H          4.18509        2.58749        1.06113
C          5.50189        0.21566        1.71191
H          5.74352       -0.85110        1.59242
H          6.28594        0.67625        2.33323
H          4.54730        0.28576        2.25857
