107
Int2_comp179_0_Sub12.log	Energy: -1754718.6069799
N         -0.43803        2.13444        1.42126
C         -0.67369        3.23775        0.69400
C         -0.94801        4.46326        1.30789
C         -0.95566        4.53994        2.69440
C         -0.68908        3.39140        3.43328
C         -0.43976        2.20571        2.75168
H         -0.26108        1.26679        3.27521
H         -0.67696        3.40421        4.52412
H         -1.14302        5.35383        0.71192
C         -0.58838        3.07597       -0.76896
N         -0.27850        1.84353       -1.22288
C         -0.14819        1.62963       -2.53792
C         -0.32040        2.64550       -3.47008
C         -0.64284        3.92227       -3.02188
C         -0.77805        4.13624       -1.65713
H         -1.02598        5.12778       -1.28191
H         -0.19776        2.42483       -4.53128
H          0.09648        0.60358       -2.82646
Ir        -0.06283        0.26267        0.22698
H          0.27829       -0.84575        1.32638
B         -2.09764        0.06711       -0.42304
O         -3.19147        0.78192        0.01863
C         -4.15447        0.86815       -1.04191
C         -5.54659        0.73608       -0.45165
H         -5.65671       -0.19230        0.12234
H         -6.31229        0.75231       -1.24187
H         -5.73749        1.57945        0.22784
C         -3.98932        2.24475       -1.67435
H         -4.74463        2.43213       -2.45111
H         -4.09742        3.00836       -0.89043
H         -2.99410        2.36046       -2.12358
C         -3.72647       -0.30652       -1.99904
O         -2.35602       -0.51226       -1.64492
C         -4.46239       -1.61154       -1.72874
H         -4.38956       -1.88752       -0.67036
H         -5.52302       -1.55250       -2.01285
H         -3.98956       -2.41234       -2.31513
C         -3.79288        0.02455       -3.48042
H         -3.14808        0.87566       -3.73383
H         -3.44660       -0.84283       -4.06098
H         -4.82338        0.25505       -3.79034
B          0.36495       -1.32141       -0.97567
O          0.61607       -2.60799       -0.53531
C          0.60643       -3.47541       -1.67186
C          1.54479       -4.63990       -1.42271
H          2.55437       -4.29686       -1.16270
H          1.16618       -5.24336       -0.58489
H          1.61097       -5.28876       -2.30947
C         -0.82854       -3.96733       -1.83819
H         -0.92325       -4.70213       -2.65138
H         -1.14636       -4.43546       -0.89591
H         -1.50376       -3.12043       -2.02857
C          1.04731       -2.50689       -2.81733
O          0.52105       -1.25760       -2.35391
C          0.45302       -2.81594       -4.17838
H         -0.64261       -2.75513       -4.15468
H          0.81925       -2.08889       -4.91858
H          0.74647       -3.82133       -4.51709
C          2.56074       -2.35120       -2.91304
H          2.99427       -2.13232       -1.92656
H          3.04282       -3.24976       -3.32516
H          2.78976       -1.50138       -3.57235
B         -1.35990       -0.87498        1.39496
O         -1.70016       -0.43210        2.67211
C         -2.08501       -1.57418        3.44039
C         -0.82866       -2.11099        4.12161
H         -0.08321       -2.43516        3.38045
H         -0.37942       -1.30827        4.72463
H         -1.05090       -2.95768        4.78700
C         -3.10440       -1.14700        4.47943
H         -2.62884       -0.47243        5.20665
H         -3.49713       -2.01612        5.02878
H         -3.94196       -0.60870        4.01827
C         -2.62728       -2.54082        2.33320
O         -1.86565       -2.14753        1.18684
C         -2.37967       -4.01567        2.59339
H         -2.87388       -4.34227        3.52125
H         -2.78826       -4.60785        1.76152
H         -1.30687       -4.23443        2.66419
C         -4.09983       -2.30023        2.02667
H         -4.28083       -1.23902        1.80387
H         -4.38113       -2.89540        1.14660
H         -4.74524       -2.60638        2.86231
H         -1.16240        5.49026        3.19127
H         -0.78602        4.74546       -3.72501
C          2.05790        0.54115        0.28773
C          2.73437        1.73473        0.06690
C          2.91108       -0.54770        0.57753
F          2.07828        2.87638       -0.19395
C          4.13176        1.79279        0.11249
C          4.29831       -0.41905        0.61395
H          2.46300       -1.52384        0.75875
Cl         4.90971        3.32563       -0.19271
N          4.88733        0.76021        0.37134
C          5.25175       -1.57666        0.90019
C          4.50842       -2.86502        1.24622
H          5.23184       -3.66968        1.44945
H          3.88028       -2.74442        2.14222
H          3.85859       -3.20040        0.42401
C          6.10938       -1.80207       -0.35214
H          6.63319       -0.87508       -0.62592
H          6.85653       -2.59230       -0.17444
H          5.48475       -2.10638       -1.20700
C          6.15703       -1.18173        2.07305
H          6.90444       -1.96786        2.26625
H          6.67955       -0.24091        1.85062
H          5.56735       -1.03550        2.99181
