96
Int2_comp16_3_Sub6.log	Energy: -1316360.5817525
N         -2.08055        1.10062       -1.18818
C         -3.21506        1.02315       -0.47581
C         -4.38542        1.65462       -0.91017
C         -4.36633        2.37263       -2.09815
C         -3.17714        2.45244       -2.81815
C         -2.05409        1.80018       -2.32243
H         -1.08261        1.84677       -2.81790
H         -3.11277        3.01179       -3.75279
H         -5.30587        1.57880       -0.33238
C         -3.13611        0.25250        0.77881
N         -1.96652       -0.36589        1.03337
C         -1.81829       -1.07887        2.15514
C         -2.83621       -1.19581        3.09310
C         -4.04674       -0.55202        2.85607
C         -4.19618        0.17831        1.68596
H         -5.13233        0.69470        1.47878
H         -2.66895       -1.78766        3.99412
H         -0.84921       -1.56794        2.27776
Ir        -0.43266       -0.23887       -0.45884
H          0.55441       -0.33398       -1.71338
B          0.32089        1.11885        1.02258
O         -0.00970        2.45082        1.18675
C          0.04989        2.77478        2.58074
C          0.57949        4.18882        2.73560
H          1.55064        4.31203        2.23986
H          0.69102        4.45440        3.79788
H         -0.12643        4.89677        2.27737
C         -1.37816        2.69343        3.11125
H         -1.44348        2.99618        4.16644
H         -2.01245        3.36519        2.51491
H         -1.78188        1.67590        3.01429
C          0.98675        1.65068        3.15572
O          0.84011        0.60464        2.19274
C          2.45874        2.04056        3.17709
H          2.77722        2.41291        2.19599
H          2.67209        2.80588        3.93756
H          3.05629        1.14599        3.40463
C          0.57404        1.11398        4.51567
H         -0.43583        0.68476        4.48946
H          1.26986        0.31785        4.81826
H          0.60374        1.90481        5.28068
B          0.86307       -1.65232        0.20295
O          2.00553       -2.07037       -0.46279
C          2.78189       -2.86158        0.43583
C          3.56346       -3.89351       -0.35446
H          2.90427       -4.48316       -1.00480
H          4.30184       -3.38551       -0.99210
H          4.10482       -4.57821        0.31662
C          3.72759       -1.91034        1.16434
H          4.42240       -2.44468        1.82945
H          4.30760       -1.35490        0.41397
H          3.15613       -1.17349        1.74778
C          1.67913       -3.44645        1.37537
O          0.71517       -2.39029        1.37310
C          2.12547       -3.70582        2.80181
H          2.45758       -2.77885        3.28677
H          1.28722       -4.11449        3.38593
H          2.94798       -4.43702        2.83094
C          0.99856       -4.67935        0.78993
H          0.68119       -4.49329       -0.24668
H          1.65334       -5.56310        0.81325
H          0.09661       -4.89794        1.38008
B          1.12754        1.03859       -0.98251
O          0.91356        2.06307       -1.91217
C          2.16850        2.36367       -2.52327
C          2.31373        1.45734       -3.74364
H          2.32572        0.39741       -3.44919
H          1.45124        1.61405       -4.40822
H          3.23022        1.67388       -4.31154
C          2.17659        3.82102       -2.94477
H          1.44155        3.97775       -3.74823
H          3.16559        4.11666       -3.32715
H          1.90689        4.47825       -2.10847
C          3.17567        1.99555       -1.38318
O          2.48341        0.95282       -0.69472
C          4.51337        1.45816       -1.85914
H          5.04114        2.19974       -2.47856
H          5.14568        1.22670       -0.98939
H          4.38845        0.53373       -2.43695
C          3.38631        3.14461       -0.40426
H          2.42036        3.52331       -0.03988
H          3.96160        2.77359        0.45576
H          3.94873        3.97291       -0.85891
H         -5.27218        2.86651       -2.45674
H         -4.86762       -0.61640        3.57373
C         -1.46268       -1.82566       -1.38596
C         -1.05804       -2.63345       -2.49919
N         -2.67886       -2.20018       -0.97848
C         -2.11419       -3.49978       -2.71233
C          0.21015       -2.54240       -3.28098
N         -3.05290       -3.19992       -1.78404
H         -2.26075       -4.29227       -3.44500
H         -3.94307       -3.65480       -1.64089
H          0.29545       -3.36579       -4.00605
H          1.08700       -2.56764       -2.61649
H          0.26567       -1.59684       -3.84660
