100
Int2_comp27_2_Sub16.log	Energy: -1943942.3283348
N         -0.14660       -2.14871        1.31007
C         -0.05015       -3.22714        0.51686
C          0.07828       -4.51080        1.05407
C          0.06860       -4.67121        2.43349
C         -0.07530       -3.54713        3.24075
C         -0.17208       -2.30078        2.63249
H         -0.25205       -1.38327        3.21420
H         -0.10621       -3.62542        4.32846
H          0.17232       -5.38018        0.40457
C         -0.15773       -2.97069       -0.93083
N         -0.30854       -1.68224       -1.30619
C         -0.48588       -1.38096       -2.59789
C         -0.52661       -2.35906       -3.58406
C         -0.36637       -3.69132       -3.21792
C         -0.17712       -3.99648       -1.87708
H         -0.05749       -5.03244       -1.56407
H         -0.68565       -2.06565       -4.62256
H         -0.59124       -0.31633       -2.82340
Ir        -0.16906       -0.17882        0.22797
H         -0.19668        0.91128        1.39731
B          1.83008       -0.36490       -0.51924
O          2.76606       -1.32265       -0.18574
C          3.67384       -1.49993       -1.28303
C          5.07601       -1.68894       -0.73287
H          5.37755       -0.85032       -0.09345
H          5.80830       -1.78867       -1.54823
H          5.11023       -2.60654       -0.12761
C          3.23643       -2.75948       -2.02005
H          3.93072       -3.01980       -2.83197
H          3.20625       -3.59448       -1.30504
H          2.23185       -2.64412       -2.44702
C          3.46474       -0.18676       -2.12682
O          2.17216        0.25354       -1.70201
C          4.45338        0.92002       -1.78655
H          4.45160        1.12438       -0.70955
H          5.47585        0.67060       -2.10507
H          4.14564        1.84195       -2.30001
C          3.42591       -0.39766       -3.63116
H          2.61627       -1.07869       -3.92269
H          3.24712        0.56718       -4.12764
H          4.38058       -0.80106       -4.00126
B         -0.26426        1.52037       -0.88829
O         -0.12370        2.80901       -0.40157
C          0.00949        3.69402       -1.51627
C         -0.56454        5.05018       -1.15499
H         -1.60698        4.97328       -0.82015
H          0.02487        5.49190       -0.33816
H         -0.52436        5.73567       -2.01533
C          1.50185        3.80757       -1.81257
H          1.71221        4.52902       -2.61600
H          2.01359        4.13498       -0.89636
H          1.91004        2.82381       -2.08448
C         -0.76977        2.92417       -2.63190
O         -0.54886        1.56277       -2.24697
C         -0.23865        3.13019       -4.03803
H          0.80139        2.78963       -4.12226
H         -0.84542        2.55469       -4.75300
H         -0.28997        4.19109       -4.32718
C         -2.27373        3.16888       -2.58351
H         -2.66260        3.02547       -1.56499
H         -2.53845        4.17822       -2.93140
H         -2.77321        2.43564       -3.23314
B          1.37616        0.54499        1.41740
O          1.63584       -0.06529        2.64356
C          2.29461        0.89062        3.47510
C          1.21536        1.65012        4.24315
H          0.55019        2.19518        3.55707
H          0.60366        0.92908        4.80500
H          1.64514        2.36739        4.95726
C          3.20631        0.15659        4.44030
H          2.59992       -0.44437        5.13396
H          3.80414        0.86326        5.03582
H          3.88344       -0.52412        3.90922
C          3.02431        1.78835        2.41888
O          2.16390        1.67773        1.28028
C          3.13995        3.25464        2.79410
H          3.72101        3.38147        3.72048
H          3.65541        3.79888        1.98932
H          2.15178        3.71252        2.92708
C          4.39034        1.23288        2.03800
H          4.30711        0.18131        1.72908
H          4.79006        1.81463        1.19560
H          5.10614        1.30760        2.86904
H          0.16220       -5.66711        2.87192
H         -0.39107       -4.48680       -3.96568
C         -2.31623        0.09105        0.43416
C         -3.36459       -0.81767        0.22761
C         -2.71485        1.37931        0.86224
Cl        -3.08157       -2.47482       -0.25300
C         -4.71256       -0.45345        0.41162
C         -4.04514        1.74813        1.05659
H         -1.94213        2.12936        1.02301
C         -5.06301        0.82200        0.82224
Cl        -5.99529       -1.59036        0.13659
O         -4.43983        2.97859        1.45994
H         -6.10665        1.10018        0.96554
C         -3.45644        3.92125        1.77774
H         -2.80963        3.57858        2.60526
H         -2.80980        4.15695        0.91498
H         -3.98287        4.83281        2.08952
