100
Int2_comp42_0_Sub9.log	Energy: -1517706.9777160
N         -0.51296        2.12825        1.53823
C         -0.52882        3.28445        0.85582
C         -0.71967        4.50926        1.50449
C         -0.89177        4.52370        2.88231
C         -0.87454        3.31591        3.57488
C         -0.68456        2.13853        2.86019
H         -0.69545        1.15842        3.33886
H         -1.00737        3.27833        4.65720
H         -0.72643        5.44365        0.94404
C         -0.32835        3.17026       -0.60057
N         -0.07983        1.93091       -1.07919
C          0.10974        1.74543       -2.39539
C          0.05931        2.79800       -3.29997
C         -0.19858        4.08258       -2.82706
C         -0.39220        4.26798       -1.46536
H         -0.59987        5.26235       -1.07270
H          0.22115        2.60030       -4.36054
H          0.31665        0.71435       -2.69748
Ir        -0.03830        0.29220        0.31519
H          0.22118       -0.84493        1.40554
B         -1.96941        0.05521       -0.57429
O         -3.16355        0.66128       -0.23270
C         -3.96663        0.80062       -1.41246
C         -5.42310        0.57672       -1.05030
H         -5.57315       -0.39626       -0.56619
H         -6.06264        0.62597       -1.94468
H         -5.75234        1.35833       -0.35014
C         -3.76704        2.22897       -1.90885
H         -4.40245        2.45666       -2.77694
H         -4.02477        2.92261       -1.09542
H         -2.71940        2.40968       -2.18763
C         -3.35178       -0.27760       -2.37572
O         -2.02183       -0.41750       -1.86887
C         -4.01738       -1.64247       -2.26325
H         -4.05109       -1.97133       -1.21746
H         -5.03705       -1.64139       -2.67509
H         -3.41531       -2.37366       -2.82152
C         -3.27234        0.14328       -3.83284
H         -2.66536        1.04914       -3.95931
H         -2.80296       -0.66071       -4.41812
H         -4.27496        0.32857       -4.24735
B          0.67671       -1.21088       -0.84624
O          0.97591       -2.48302       -0.41140
C          1.34142       -3.27309       -1.54378
C          2.39268       -4.28216       -1.12341
H          3.23904       -3.78917       -0.62799
H          1.95289       -4.99692       -0.41244
H          2.76732       -4.84802       -1.99035
C          0.07292       -3.97487       -2.01973
H          0.26773       -4.67151       -2.84864
H         -0.34978       -4.53823       -1.17556
H         -0.67932       -3.23637       -2.33446
C          1.84458       -2.18671       -2.55138
O          1.03962       -1.05988       -2.18024
C          1.59757       -2.50965       -4.01278
H          0.52617       -2.62791       -4.22038
H          1.98003       -1.69316       -4.64367
H          2.11931       -3.43412       -4.30400
C          3.30074       -1.79403       -2.32529
H          3.49177       -1.55305       -1.26937
H          3.99485       -2.58645       -2.64125
H          3.51706       -0.89115       -2.91551
B         -1.42898       -0.92472        1.27995
O         -1.91719       -0.55807        2.53470
C         -2.35006       -1.74930        3.19690
C         -1.15888       -2.29686        3.97863
H         -0.33229       -2.56565        3.30442
H         -0.79534       -1.51945        4.66662
H         -1.42823       -3.18257        4.57201
C         -3.48564       -1.40234        4.14098
H         -3.10879       -0.76152        4.95188
H         -3.91220       -2.30928        4.59593
H         -4.28282       -0.85576        3.62152
C         -2.74519       -2.66387        1.98845
O         -1.86757       -2.19927        0.95764
C         -2.49922       -4.14653        2.19982
H         -3.08942       -4.52881        3.04685
H         -2.79763       -4.69909        1.29696
H         -1.43722       -4.35326        2.38200
C         -4.17857       -2.42588        1.52940
H         -4.35251       -1.35674        1.34153
H         -4.34793       -2.97668        0.59334
H         -4.90828       -2.78506        2.26918
H         -1.03707        5.46942        3.40876
H         -0.24967        4.93274       -3.51063
C          2.04324        0.57574        0.48504
N          2.77530        1.49937       -0.23409
C          2.99139       -0.18001        1.15851
C          4.12481        1.36461       -0.06166
H          2.36708        2.18572       -0.85197
C          4.28725        0.31309        0.82660
H          2.77897       -1.02729        1.80623
C          5.09531        2.24769       -0.76351
C          5.56043       -0.30845        1.25120
H          4.98322        2.18295       -1.85937
H          6.12376        1.96477       -0.51258
H          4.96446        3.30645       -0.48032
F          5.45120       -0.90613        2.44510
F          6.57500        0.57236        1.34456
F          5.98276       -1.26273        0.39393
