96
Int2_comp40_0_Sub9.log	Energy: -1708133.1474744
N         -0.74718       -2.19970        0.65704
C         -1.18508       -2.86619       -0.42336
C         -1.47353       -4.23243       -0.36151
C         -1.32732       -4.90139        0.84648
C         -0.90111       -4.18938        1.96371
C         -0.61550       -2.83687        1.81969
H         -0.24194       -2.23744        2.64940
H         -0.78202       -4.66990        2.93587
H         -1.80765       -4.77148       -1.24715
C         -1.38620       -2.05828       -1.64126
N         -0.98799       -0.77098       -1.59023
C         -1.21647        0.03626       -2.63055
C         -1.84978       -0.40268       -3.78579
C         -2.25533       -1.73041       -3.86320
C         -2.02015       -2.56419       -2.77865
H         -2.35222       -3.60094       -2.80483
H         -2.01590        0.29642       -4.60636
H         -0.84466        1.05689       -2.52067
Ir        -0.13522       -0.06897        0.25851
H          0.10869        0.52080        1.72038
B          1.69810       -0.71453       -0.66712
O          2.85838       -0.04439       -0.98894
C          3.62595       -0.83529       -1.90730
C          4.23396        0.09397       -2.94267
H          3.46884        0.72769       -3.40839
H          4.75520       -0.47438       -3.72809
H          4.96622        0.75456       -2.45586
C          4.72755       -1.53971       -1.12724
H          5.36752       -2.14037       -1.78946
H          5.35776       -0.78775       -0.63390
H          4.30441       -2.19796       -0.35461
C          2.55387       -1.83303       -2.46117
O          1.62834       -1.90702       -1.37129
C          1.79911       -1.26691       -3.65971
H          1.45284       -0.24356       -3.45572
H          2.42209       -1.25316       -4.56569
H          0.91699       -1.89416       -3.85501
C          3.05949       -3.22900       -2.77040
H          3.46640       -3.71635       -1.87540
H          2.22649       -3.84484       -3.14028
H          3.83785       -3.20565       -3.54817
B          0.39697        1.80765       -0.30776
O          0.55924        2.90150        0.51564
C          1.22382        3.92610       -0.22794
C          0.77670        5.28133        0.28543
H         -0.31721        5.37305        0.28091
H          1.12231        5.41240        1.32109
H          1.20310        6.09397       -0.32267
C          2.72234        3.73713       -0.01187
H          3.31027        4.52848       -0.50021
H          2.92178        3.76065        1.06842
H          3.04769        2.75360       -0.38100
C          0.78201        3.59789       -1.69236
O          0.62154        2.17508       -1.63389
C          1.80734        3.93047       -2.75957
H          2.74019        3.37564       -2.59715
H          1.41536        3.65630       -3.75056
H          2.03186        5.00805       -2.76924
C         -0.57651        4.19275       -2.04680
H         -1.32526        3.94260       -1.28071
H         -0.53156        5.28605       -2.15678
H         -0.91560        3.76876       -3.00412
B          1.55789       -0.13345        1.48144
O          1.85942       -1.25283        2.25721
C          2.65916       -0.81893        3.36320
C          1.70816       -0.53220        4.52177
H          0.99281        0.26195        4.26196
H          1.13606       -1.44395        4.74998
H          2.24640       -0.23201        5.43222
C          3.62146       -1.92976        3.73951
H          3.05734       -2.79908        4.10842
H          4.30651       -1.60388        4.53678
H          4.21503       -2.25464        2.87576
C          3.33410        0.48137        2.79628
O          2.38771        0.91598        1.82335
C          3.52436        1.59306        3.81416
H          4.17357        1.26671        4.64110
H          4.00139        2.45560        3.32635
H          2.56457        1.93048        4.22519
C          4.64829        0.20286        2.08133
H          4.53447       -0.61997        1.36763
H          4.93607        1.09980        1.51453
H          5.45532       -0.04320        2.78690
H         -1.54851       -5.96875        0.91399
H         -2.75965       -2.11335       -4.75291
C         -2.08392        0.65971        0.62874
S         -3.47256       -0.35346        0.39104
C         -2.51129        1.89681        1.07777
C         -4.58742        0.87282        0.87344
C         -3.91976        2.02168        1.21688
H         -1.80625        2.69942        1.30178
C         -6.05366        0.64729        0.88635
H         -4.43420        2.92250        1.55514
F         -6.53780        0.34331       -0.32975
F         -6.70720        1.73505        1.30945
F         -6.41179       -0.36826        1.68825
