102
Int2_comp171_5_Sub8.log	Energy: -1482989.4344101
N          0.36754       -2.34494       -0.81803
C          1.05827       -3.08061        0.06832
C          1.39862       -4.40862       -0.20414
C          0.98935       -4.97803       -1.40425
C          0.23812       -4.21411       -2.29118
C         -0.05252       -2.89421       -1.95761
H         -0.64454       -2.24628       -2.60645
H         -0.11935       -4.62264       -3.23746
H          1.97854       -4.99322        0.50942
C          1.37415       -2.41612        1.34890
N          1.03808       -1.11236        1.45012
C          1.17594       -0.47158        2.61784
C          1.69523       -1.10068        3.74286
C          2.08791       -2.43032        3.64755
C          1.91993       -3.09653        2.43934
H          2.18964       -4.14804        2.35126
H          1.80219       -0.53355        4.66782
H          0.86092        0.57509        2.62425
Ir         0.21954       -0.14581       -0.29234
H         -0.20413        0.58343       -1.64772
B         -1.51949       -0.50881        0.92661
O         -2.23702       -1.68763        0.94007
C         -2.85765       -1.82700        2.22560
C         -4.21513       -2.48197        2.05388
H         -4.84370       -1.93025        1.34414
H         -4.74406       -2.54559        3.01700
H         -4.08540       -3.50278        1.66581
C         -1.94718       -2.72164        3.05992
H         -2.38402       -2.95018        4.04281
H         -1.79149       -3.66641        2.51905
H         -0.96479       -2.25440        3.21635
C         -2.89708       -0.34491        2.73626
O         -1.79241        0.24360        2.04241
C         -4.14615        0.40963        2.29661
H         -4.29498        0.31843        1.21190
H         -5.04827        0.05690        2.81704
H         -4.00613        1.47724        2.51760
C         -2.68043       -0.17943        4.22911
H         -1.70486       -0.57532        4.53977
H         -2.70751        0.88929        4.48650
H         -3.46934       -0.69006        4.80213
B          0.25703        1.80811        0.26840
O          0.21475        2.87832       -0.60150
C          0.48687        4.07359        0.13613
C          1.97600        4.36695       -0.01142
H          2.58157        3.56577        0.43609
H          2.21914        4.41921       -1.08250
H          2.25580        5.32195        0.45723
C         -0.33835        5.20668       -0.44469
H         -0.22733        6.12419        0.15357
H          0.00231        5.42211       -1.46809
H         -1.40196        4.93962       -0.49162
C          0.09487        3.65527        1.59297
O          0.36965        2.25037        1.57358
C         -1.39763        3.80788        1.86832
H         -1.98839        3.33637        1.06910
H         -1.63371        3.28581        2.80663
H         -1.69200        4.86330        1.96619
C          0.91963        4.30173        2.68913
H          1.97731        4.02094        2.60484
H          0.83298        5.39857        2.65384
H          0.55817        3.96374        3.67178
B         -1.66678        0.16079       -1.11683
O         -2.16428       -0.72081       -2.06196
C         -3.43009       -0.23669       -2.52323
C         -3.53164       -0.49701       -4.01513
H         -2.63715       -0.13689       -4.53881
H         -3.61319       -1.57908       -4.19623
H         -4.42459       -0.01346       -4.44007
C         -4.51281       -0.99945       -1.77052
H         -4.35526       -2.07678       -1.92240
H         -5.52057       -0.73760       -2.12449
H         -4.44876       -0.80684       -0.69145
C         -3.35972        1.27960       -2.12843
O         -2.51125        1.24830       -0.97204
C         -2.64664        2.12678       -3.17766
H         -3.27190        2.28689       -4.06795
H         -2.40318        3.10233       -2.73338
H         -1.70260        1.65827       -3.49240
C         -4.68692        1.90634       -1.74927
H         -5.14483        1.39711       -0.89152
H         -4.53055        2.95959       -1.47405
H         -5.39040        1.87477       -2.59506
H          1.25044       -6.01255       -1.63811
H          2.51072       -2.95325        4.50817
C          2.16547        0.07924       -1.14872
C          3.37354        0.37020       -0.46719
C          2.32334       -0.10242       -2.54944
C          4.63763        0.38874       -1.10561
C          3.38590        0.78247        0.90392
C          1.19307       -0.30005       -3.41126
C          3.56894       -0.05188       -3.19578
C          4.73093        0.17137       -2.47585
O          5.77021        0.67558       -0.42167
N          3.47139        1.15920        1.99870
N          0.33003       -0.44253       -4.17562
H          3.61285       -0.19344       -4.27806
H          5.71200        0.20593       -2.95095
C          6.23949       -0.29849        0.48561
H          5.52289       -0.48791        1.30076
H          6.46104       -1.24600       -0.03625
H          7.16639        0.09692        0.92028
