111
Int2_comp34_0_Sub20.log	Energy: -1512330.3586577
N          1.17033       -1.66553       -0.74531
C          1.77407       -2.17082        0.34102
C          2.46955       -3.38243        0.28390
C          2.58110       -4.04191       -0.93338
C          1.99631       -3.47512       -2.06169
C          1.28634       -2.28809       -1.91656
H          0.76793       -1.82263       -2.75415
H          2.07139       -3.94778       -3.04209
H          2.92720       -3.80580        1.17729
C          1.70063       -1.34282        1.55789
N          0.97752       -0.20761        1.47084
C          0.91785        0.62781        2.51470
C          1.58336        0.36586        3.70624
C          2.32447       -0.80637        3.81989
C          2.37980       -1.66858        2.73378
H          2.95897       -2.58844        2.79619
H          1.51038        1.07913        4.52841
H          0.30113        1.51958        2.36895
Ir        -0.09628        0.15880       -0.36070
H         -0.72265        0.52137       -1.78546
B         -1.53833       -0.87599        0.84322
O         -1.60122       -2.23606        1.07696
C         -2.19376       -2.46837        2.36189
C         -3.10562       -3.67856        2.26688
H         -3.86286       -3.55362        1.48294
H         -3.61801       -3.86295        3.22320
H         -2.50771       -4.56830        2.02103
C         -1.05324       -2.75697        3.33037
H         -1.42340       -3.02845        4.32958
H         -0.46050       -3.59601        2.93776
H         -0.38659       -1.89051        3.43147
C         -2.92780       -1.10704        2.66075
O         -2.23826       -0.18842        1.81070
C         -4.39156       -1.10035        2.24191
H         -4.49846       -1.41237        1.19670
H         -5.00453       -1.75588        2.87739
H         -4.77873       -0.07469        2.32427
C         -2.80101       -0.61769        4.09387
H         -1.75177       -0.46398        4.37641
H         -3.31889        0.34728        4.19383
H         -3.25941       -1.32733        4.79922
B         -1.11443        1.85281        0.10727
O         -1.97864        2.52287       -0.73826
C         -2.68944        3.49642        0.02721
C         -3.01938        4.68247       -0.85854
H         -2.11980        5.08084       -1.34531
H         -3.71981        4.36799       -1.64603
H         -3.49533        5.48841       -0.27884
C         -3.96570        2.82099        0.52124
H         -4.62012        3.51671        1.06730
H         -4.50959        2.42932       -0.35005
H         -3.71828        1.96514        1.16582
C         -1.68032        3.79950        1.18419
O         -0.99710        2.54752        1.30558
C         -2.32321        4.13839        2.51640
H         -2.94043        3.30705        2.88048
H         -1.54288        4.33759        3.26623
H         -2.95132        5.03866        2.43373
C         -0.64031        4.84860        0.80800
H         -0.16610        4.60510       -0.15365
H         -1.07563        5.85717        0.75053
H          0.14919        4.85523        1.57377
B         -1.74044       -0.69700       -1.30864
O         -1.53945       -1.76795       -2.18070
C         -2.62792       -1.79021       -3.10406
C         -2.22954       -0.93350       -4.30335
H         -2.05511        0.11045       -4.00407
H         -1.29203       -1.32506       -4.72497
H         -2.99438       -0.94840       -5.09330
C         -2.87223       -3.22256       -3.54111
H         -2.00877       -3.58290       -4.11974
H         -3.76464       -3.29484       -4.18137
H         -2.99872       -3.88677       -2.67691
C         -3.78030       -1.14504       -2.26121
O         -3.06311       -0.28426       -1.37273
C         -4.76367       -0.30606       -3.05749
H         -5.27605       -0.91316       -3.81967
H         -5.52512        0.10691       -2.37975
H         -4.26256        0.53678       -3.54971
C         -4.52764       -2.17367       -1.42168
H         -3.82468       -2.76554       -0.81804
H         -5.21335       -1.64694       -0.74332
H         -5.12451       -2.85416       -2.04573
H          3.12667       -4.98568       -0.99944
H          2.85527       -1.04872        4.74306
C          1.44808        1.47790       -1.00965
C          2.79929        1.36732       -0.71651
C          1.16056        2.59399       -1.84249
O          3.43714        0.38575        0.01929
C          3.77877        2.24675       -1.17931
C          2.12620        3.48052       -2.31346
H          0.12003        2.77251       -2.12423
C          4.78593        0.78128        0.16271
O          5.00687        1.84485       -0.74637
C          3.48188        3.32482       -1.98555
H          1.82228        4.31613       -2.94949
C          5.75514       -0.37172       -0.10874
H          4.93642        1.16594        1.19643
H          4.25942        4.00126       -2.34276
C          5.47409       -0.95127       -1.49355
H          6.17598       -1.76954       -1.71691
H          4.44947       -1.34719       -1.55159
H          5.58743       -0.17963       -2.26909
C          7.17799        0.18174       -0.03354
H          7.38196        0.62636        0.95421
H          7.90946       -0.62470       -0.19639
H          7.33818        0.95790       -0.79488
C          5.55273       -1.43710        0.96547
H          6.26714       -2.26309        0.82521
H          5.70547       -1.02418        1.97574
H          4.53716       -1.84961        0.91199
