103
Int2_comp49_2_Sub13.log	Energy: -1628534.3843895
N         -0.52665       -2.24250        0.88166
C         -0.89581       -3.05445       -0.12231
C         -1.05533       -4.42819        0.08053
C         -0.85190       -4.95340        1.34981
C         -0.49824       -4.09393        2.38578
C         -0.33970       -2.74244        2.10258
H         -0.02436       -2.02915        2.86368
H         -0.33665       -4.45935        3.40095
H         -1.33141       -5.08412       -0.74423
C         -1.16382       -2.39877       -1.41646
N         -0.87527       -1.08478       -1.50379
C         -1.16739       -0.41325       -2.62165
C         -1.75908       -1.02273       -3.72031
C         -2.05238       -2.38045       -3.65480
C         -1.75104       -3.07296       -2.49002
H         -1.99447       -4.13101       -2.40500
H         -1.97969       -0.43049       -4.60931
H         -0.88139        0.64056       -2.62139
Ir        -0.09990       -0.11831        0.25844
H          0.07528        0.64766        1.64619
B          1.78866       -0.69555       -0.59298
O          2.88818        0.03542       -0.98536
C          3.72857       -0.77724       -1.81662
C          4.25939        0.08740       -2.94614
H          3.44457        0.59784       -3.47471
H          4.83473       -0.51238       -3.66785
H          4.92659        0.85828       -2.53375
C          4.88274       -1.29491       -0.96912
H          5.57860       -1.90191       -1.56600
H          5.43945       -0.44194       -0.55863
H          4.51458       -1.90384       -0.13070
C          2.75233       -1.91875       -2.25923
O          1.82872       -1.95819       -1.16580
C          1.95939       -1.55165       -3.50963
H          1.52348       -0.54673       -3.41517
H          2.58525       -1.57950       -4.41328
H          1.13710       -2.27134       -3.63518
C          3.38120       -3.28943       -2.41963
H          3.82341       -3.64114       -1.47895
H          2.60851       -4.01239       -2.72010
H          4.15994       -3.27967       -3.19728
B          0.26926        1.72627       -0.50861
O          0.30832        2.91243        0.19125
C          0.87595        3.91492       -0.65668
C          0.27997        5.26274       -0.29877
H         -0.81728        5.23831       -0.32032
H          0.59059        5.54166        0.71848
H          0.63060        6.04487       -0.98962
C          2.38146        3.90939       -0.40955
H          2.89320        4.70032       -0.97772
H          2.55639        4.07224        0.66295
H          2.81478        2.93150       -0.66519
C          0.49813        3.38431       -2.07944
O          0.47919        1.96664       -1.86526
C          1.50654        3.69969       -3.16780
H          2.48667        3.26334       -2.93676
H          1.16355        3.28049       -4.12568
H          1.62256        4.78687       -3.29487
C         -0.90499        3.79658       -2.51056
H         -1.64231        3.55923       -1.72957
H         -0.96640        4.87022       -2.73996
H         -1.18026        3.23920       -3.41881
B          1.57853        0.10227        1.48286
O          1.96368       -0.88926        2.38541
C          2.71200       -0.26140        3.43331
C          1.72685        0.08254        4.54683
H          0.95311        0.77928        4.19220
H          1.22744       -0.83915        4.88120
H          2.22808        0.53212        5.41595
C          3.75777       -1.23540        3.94228
H          3.26298       -2.09746        4.41360
H          4.40496       -0.76000        4.69477
H          4.38551       -1.61198        3.12490
C          3.28427        1.01317        2.71553
O          2.31442        1.24997        1.69819
C          3.37393        2.24970        3.59343
H          4.03863        2.07783        4.45391
H          3.78505        3.08384        3.00638
H          2.38588        2.55481        3.96033
C          4.62315        0.75948        2.03815
H          4.58396       -0.15039        1.42967
H          4.84150        1.60206        1.36667
H          5.44115        0.66799        2.76765
H         -0.97091       -6.02447        1.52719
H         -2.51982       -2.89583       -4.49657
C         -2.11093        0.47112        0.53153
S         -3.40527       -0.69568        0.46239
C         -2.66107        1.70907        0.76584
C         -4.66120        0.45488        0.72401
C         -4.09308        1.70796        0.87314
H         -2.05613        2.61156        0.86375
C         -6.11304        0.07890        0.76012
C         -4.87684        2.87650        1.09666
N         -5.51917        3.82802        1.27372
H         -6.66176        1.01273        0.97069
C         -6.58606       -0.45288       -0.59380
H         -7.66443       -0.67541       -0.57193
H         -6.40031        0.27986       -1.39278
H         -6.05214       -1.38036       -0.85730
C         -6.41221       -0.91171        1.88565
H         -6.09886       -0.50991        2.86027
H         -7.48940       -1.13545        1.93327
H         -5.87534       -1.86083        1.72532
