105
Int2_comp51_2_Sub12.log	Energy: -1883660.5914050
N          0.28612       -2.09485        1.49540
C         -0.08524       -3.18239        0.80187
C         -0.20544       -4.43070        1.42131
C          0.06464       -4.54004        2.77898
C          0.45559       -3.40354        3.48162
C          0.55626       -2.19791        2.79638
H          0.88961       -1.27806        3.27944
H          0.68237       -3.44287        4.54814
H         -0.51456       -5.30774        0.85379
C         -0.35175       -2.96939       -0.63332
N         -0.25750       -1.70000       -1.08175
C         -0.48583       -1.42442       -2.37313
C         -0.81519       -2.41626       -3.28732
C         -0.91577       -3.73221       -2.84553
C         -0.68273       -4.00962       -1.50586
H         -0.75533       -5.03195       -1.13804
H         -0.99491       -2.14662       -4.32886
H         -0.40839       -0.36938       -2.64895
Ir         0.21381       -0.15664        0.34493
H          0.31292        0.96361        1.47786
B          2.08594       -0.41950       -0.65378
O          3.08056       -1.33670       -0.37664
C          3.74641       -1.67821       -1.59998
C          5.22494       -1.87388       -1.31971
H          5.66631       -0.98842       -0.84546
H          5.77665       -2.08630       -2.24803
H          5.35992       -2.72628       -0.63803
C          3.13012       -2.98765       -2.08150
H          3.62898       -3.37021       -2.98366
H          3.22921       -3.73709       -1.28291
H          2.05985       -2.86728       -2.30017
C          3.40510       -0.45761       -2.52990
O          2.20272        0.04858       -1.94386
C          4.43756        0.65981       -2.46825
H          4.63573        0.94832       -1.42898
H          5.38444        0.37486       -2.94950
H          4.03230        1.54051       -2.98686
C          3.12080       -0.82142       -3.97690
H          2.27513       -1.51620       -4.06015
H          2.86373        0.08972       -4.53633
H          4.00253       -1.27825       -4.45148
B         -0.15664        1.52090       -0.73624
O         -0.18138        2.80073       -0.22187
C         -0.38949        3.71537       -1.29964
C         -1.19951        4.89505       -0.79719
H         -2.12161        4.56166       -0.30370
H         -0.60832        5.46173       -0.06290
H         -1.46269        5.57468       -1.62239
C          0.98952        4.16521       -1.77245
H          0.93008        4.93473       -2.55647
H          1.53502        4.57826       -0.91192
H          1.56634        3.30754       -2.14900
C         -1.12308        2.81675       -2.34886
O         -0.55606        1.53152       -2.06653
C         -0.84876        3.17121       -3.79768
H          0.21933        3.08241       -4.03456
H         -1.40288        2.48789       -4.45854
H         -1.17771        4.19793       -4.01988
C         -2.62350        2.71123       -2.09350
H         -2.82747        2.45813       -1.04273
H         -3.15147        3.64186       -2.34823
H         -3.03075        1.89907       -2.71345
B          1.91812        0.65747        1.22203
O          2.39295        0.14963        2.43204
C          3.14616        1.18338        3.07100
C          2.18148        1.97521        3.94984
H          1.39707        2.45377        3.34509
H          1.69288        1.28595        4.65413
H          2.69798        2.75257        4.53129
C          4.23187        0.54860        3.91929
H          3.77314       -0.00857        4.74955
H          4.89514        1.31416        4.35000
H          4.83484       -0.15590        3.33266
C          3.65928        2.01309        1.84553
O          2.62460        1.79941        0.88031
C          3.78946        3.50514        2.09177
H          4.51351        3.71211        2.89478
H          4.14463        3.99752        1.17473
H          2.82331        3.95181        2.35806
C          4.95739        1.45711        1.27333
H          4.85977        0.38192        1.06538
H          5.17929        1.97616        0.33019
H          5.80503        1.61580        1.95531
H         -0.02942       -5.50477        3.28220
H         -1.17504       -4.53755       -3.53616
C         -1.86152        0.03125        0.66438
S         -3.01776       -1.01266       -0.09970
C         -2.55418        0.99930        1.35777
C         -4.41770       -0.17349        0.49109
C         -3.97029        0.87945        1.25599
H         -2.07455        1.81063        1.90613
C         -5.82663       -0.60279        0.12650
Cl        -5.00078        2.04489        2.03779
C         -6.51204        0.52457       -0.66011
H         -7.53976        0.23340       -0.93252
H         -6.56015        1.44932       -0.06893
H         -5.95623        0.74096       -1.58540
C         -5.79747       -1.85910       -0.74912
H         -5.31630       -2.70121       -0.22778
H         -6.82500       -2.15999       -1.00545
H         -5.25089       -1.68245       -1.68852
C         -6.61913       -0.91696        1.40342
H         -7.64901       -1.21762        1.15047
H         -6.14503       -1.74073        1.95854
H         -6.66800       -0.04335        2.06753
