101
Int2_comp173_0_Sub23.log	Energy: -1705411.7285597
N         -0.28155       -2.26646        1.12471
C         -0.42312       -3.28475        0.26163
C         -0.62718       -4.59438        0.71003
C         -0.69458       -4.83836        2.07495
C         -0.55780       -3.76951        2.95651
C         -0.35028       -2.49745        2.43584
H         -0.20416       -1.62550        3.07353
H         -0.60947       -3.91168        4.03705
H         -0.74786       -5.41361        0.00206
C         -0.38308       -2.92615       -1.16812
N         -0.32242       -1.60794       -1.45469
C         -0.33672       -1.20199       -2.73219
C         -0.39263       -2.10065       -3.78954
C         -0.43061       -3.46487       -3.51451
C         -0.42897       -3.87918       -2.19019
H         -0.46054       -4.94053       -1.94825
H         -0.40613       -1.72247       -4.81264
H         -0.31340       -0.11974       -2.88191
Ir        -0.12391       -0.22076        0.18243
H         -0.17776        0.82337        1.38870
B          1.87320       -0.37145       -0.54282
O          2.84150       -1.30369       -0.21779
C          3.73616       -1.45133       -1.32831
C          5.14468       -1.66865       -0.80751
H          5.45587       -0.85870       -0.13648
H          5.86445       -1.73338       -1.63773
H          5.18674       -2.61199       -0.24357
C          3.27181       -2.67991       -2.10351
H          3.94634       -2.92036       -2.93809
H          3.24514       -3.53867       -1.41717
H          2.25879       -2.53639       -2.50445
C          3.52437       -0.11151       -2.11812
O          2.20115        0.26456       -1.72536
C          4.45815        1.00669       -1.67402
H          4.40343        1.14524       -0.58703
H          5.50121        0.81412       -1.96439
H          4.13296        1.94616       -2.14264
C          3.55952       -0.25236       -3.62972
H          2.78223       -0.93924       -3.98894
H          3.38166        0.72955       -4.09210
H          4.54022       -0.61749       -3.97089
B         -0.19674        1.54814       -0.81399
O          0.16242        2.78504       -0.33076
C          0.09747        3.73011       -1.39688
C         -0.32610        5.07465       -0.83625
H         -1.24428        4.98256       -0.24219
H          0.46424        5.46160       -0.17638
H         -0.49061        5.80731       -1.64154
C          1.49337        3.81350       -2.00663
H          1.55951        4.58107       -2.79219
H          2.20589        4.06229       -1.20692
H          1.78585        2.83761       -2.42004
C         -0.93939        3.06210       -2.35805
O         -0.70908        1.67162       -2.10429
C         -0.72181        3.34132       -3.83288
H          0.26246        2.98687       -4.16594
H         -1.49103        2.82404       -4.42575
H         -0.79835        4.41896       -4.04423
C         -2.38278        3.35517       -1.96210
H         -2.53746        3.17416       -0.88863
H         -2.67075        4.39100       -2.19508
H         -3.04615        2.67351       -2.51381
B          1.37392        0.39383        1.47963
O          1.55470       -0.29822        2.67849
C          2.23515        0.57155        3.58538
C          1.17205        1.34337        4.36258
H          0.54944        1.95013        3.68908
H          0.51094        0.62583        4.87061
H          1.61555        2.00142        5.12388
C          3.07556       -0.26498        4.53190
H          2.41716       -0.86940        5.17339
H          3.69051        0.37421        5.18371
H          3.73312       -0.95013        3.98209
C          3.04677        1.48457        2.60541
O          2.21717        1.49164        1.44030
C          3.23298        2.91671        3.07200
H          3.79175        2.95501        4.01987
H          3.80134        3.47693        2.31533
H          2.26736        3.42044        3.20468
C          4.38925        0.87124        2.22611
H          4.25382       -0.15300        1.85096
H          4.84503        1.47555        1.42885
H          5.08538        0.85624        3.07707
H         -0.85908       -5.85264        2.44505
H         -0.46508       -4.20002       -4.32133
C         -2.26606       -0.08619        0.30896
C         -3.09022       -1.01206       -0.36567
C         -2.99464        0.86669        1.03327
C         -4.46737       -0.96800       -0.32653
H         -2.66880       -1.82231       -0.96411
C         -4.39263        0.92580        1.09409
Cl        -2.19670        2.12508        1.97021
F         -5.19278       -1.89411       -0.99057
C         -5.17567        0.00434        0.39326
H         -4.86274        1.70563        1.69248
N         -6.55202        0.01700        0.36234
H         -6.96739       -0.84361        0.03454
C         -7.31796        0.80934        1.27559
H         -8.38798        0.63044        1.10275
H         -7.13843        1.88595        1.11496
H         -7.09990        0.59469        2.34177
