108
Int2_comp43_0_Sub20.log	Energy: -1619989.2829680
N          0.64806       -2.15675       -0.65454
C          1.26365       -2.73868        0.38611
C          1.92836       -3.96118        0.24439
C          1.94724       -4.57902       -0.99902
C          1.29508       -3.96650       -2.06573
C          0.65416       -2.75224       -1.84651
H          0.09969       -2.23400       -2.63053
H          1.28046       -4.41731       -3.05923
H          2.43855       -4.42006        1.09054
C          1.20028       -2.00369        1.66363
N          0.63006       -0.78116        1.62758
C          0.55182       -0.04343        2.74324
C          1.03389       -0.50304        3.96167
C          1.61648       -1.76561        4.02211
C          1.70112       -2.52108        2.86112
H          2.15234       -3.51189        2.88387
H          0.95166        0.13237        4.84447
H          0.09572        0.94282        2.62292
Ir        -0.10004       -0.06161       -0.26777
H         -0.39289        0.51891       -1.72580
B         -1.91473       -0.62690        0.71591
O         -2.49711       -1.87820        0.77693
C         -3.19674       -2.00320        2.02192
C         -4.46739       -2.80189        1.79621
H         -5.09475       -2.35080        1.01730
H         -5.05661       -2.87445        2.72295
H         -4.20787       -3.82098        1.47434
C         -2.27036       -2.75773        2.97000
H         -2.75147       -2.96634        3.93653
H         -1.99409       -3.71435        2.50336
H         -1.34558       -2.19406        3.15604
C         -3.42289       -0.50522        2.44206
O         -2.37963        0.17300        1.73765
C         -4.74366        0.07072        1.94966
H         -4.86310       -0.09787        0.87269
H         -5.60571       -0.36041        2.47921
H         -4.73761        1.15725        2.11793
C         -3.25969       -0.23017        3.92704
H         -2.25543       -0.49858        4.27952
H         -3.40618        0.84332        4.11542
H         -4.00305       -0.78678        4.51781
B         -0.47905        1.88377        0.15666
O         -0.86090        2.83873       -0.76530
C         -1.21450        4.02563       -0.05387
C         -0.89490        5.23432       -0.91202
H          0.14693        5.21251       -1.25684
H         -1.54534        5.23802       -1.79901
H         -1.06703        6.16975       -0.35745
C         -2.71177        3.94370        0.23026
H         -3.09432        4.85638        0.71109
H         -3.23907        3.79645       -0.72304
H         -2.93458        3.07523        0.86764
C         -0.34979        3.89119        1.24114
O         -0.30767        2.46919        1.40525
C         -0.95615        4.51518        2.48334
H         -1.92153        4.05406        2.72900
H         -0.28090        4.37011        3.33994
H         -1.10379        5.59765        2.34778
C          1.08709        4.36243        1.04377
H          1.52556        3.91060        0.14169
H          1.15585        5.45791        0.97069
H          1.68801        4.03219        1.90363
B         -1.82398       -0.26017       -1.41723
O         -1.91032       -1.27727       -2.37009
C         -2.85654       -0.86791       -3.35969
C         -2.08837       -0.11801       -4.44495
H         -1.61034        0.78551       -4.03858
H         -1.29633       -0.77235       -4.83786
H         -2.73886        0.17589       -5.28146
C         -3.52377       -2.09953       -3.94239
H         -2.78351       -2.69078       -4.50159
H         -4.33048       -1.82070       -4.63742
H         -3.93876       -2.73862       -3.15285
C         -3.79972        0.07188       -2.53483
O         -2.91583        0.58649       -1.53499
C         -4.38125        1.23860       -3.31255
H         -5.00003        0.88613       -4.15213
H         -5.01730        1.84071       -2.64730
H         -3.59088        1.89283       -3.70134
C         -4.90989       -0.69775       -1.82971
H         -4.49155       -1.52475       -1.23826
H         -5.43720       -0.01426       -1.14927
H         -5.64418       -1.10023       -2.54221
H          2.46839       -5.52947       -1.13261
H          2.00429       -2.16003        4.96382
C          1.84116        0.68023       -0.61525
S          3.18205        0.28697        0.42022
C          2.30918        1.50439       -1.61967
C          4.34345        1.18917       -0.49876
C          3.70551        1.78711       -1.55784
H          1.64821        1.91371       -2.38636
C          5.79126        1.23883       -0.13302
H          4.23186        2.42265       -2.27467
H          5.89976        1.30411        0.96382
H          6.20925        2.17628       -0.53780
C          6.67777        0.06942       -0.63377
C          6.59748       -0.03497       -2.15612
H          7.24310       -0.84732       -2.52682
H          5.56629       -0.23561       -2.48361
H          6.92520        0.90144       -2.63650
C          8.11868        0.36670       -0.21488
H          8.20436        0.45391        0.88045
H          8.79995       -0.43477       -0.54263
H          8.47484        1.31178       -0.65570
C          6.23447       -1.25337       -0.00731
H          6.89398       -2.07478       -0.33130
H          6.27268       -1.20447        1.09346
H          5.20322       -1.50755       -0.29472
