99
Int2_comp163_4_Sub6.log	Energy: -1670703.2893871
N         -0.70213       -2.26263        0.92893
C         -0.92459       -3.15970       -0.04404
C         -1.13183       -4.51088        0.25143
C         -1.13109       -4.92202        1.57766
C         -0.93080       -3.97329        2.57603
C         -0.71629       -2.65129        2.20335
H         -0.52199       -1.86999        2.93737
H         -0.93485       -4.24624        3.63236
H         -1.30877       -5.23411       -0.54365
C         -0.99007       -2.62119       -1.41462
N         -0.88710       -1.28160       -1.53882
C         -1.01639       -0.71410       -2.74397
C         -1.24175       -1.46298       -3.89240
C         -1.32793       -2.84742       -3.78744
C         -1.20244       -3.42921       -2.53334
H         -1.27073       -4.51042       -2.42321
H         -1.34617       -0.95350       -4.85133
H         -0.94044        0.37580       -2.76209
Ir        -0.37256       -0.14087        0.22437
H         -0.12534        0.75914        1.52022
B          1.49098       -0.47023       -0.74390
O          2.33426       -1.55921       -0.62672
C          3.12365       -1.66779       -1.82002
C          4.52036       -2.13272       -1.45235
H          4.98697       -1.46757       -0.71584
H          5.16525       -2.17799       -2.34317
H          4.46895       -3.14092       -1.01572
C          2.44491       -2.70795       -2.70336
H          3.02866       -2.92042       -3.61077
H          2.33755       -3.64051       -2.13053
H          1.44129       -2.37858       -3.00430
C          3.04571       -0.21703       -2.41360
O          1.81517        0.26696       -1.86614
C          4.15151        0.70152       -1.91064
H          4.17901        0.70436       -0.81375
H          5.13814        0.41203       -2.30052
H          3.93484        1.72815       -2.23655
C          2.96034       -0.15353       -3.92836
H          2.07178       -0.67705       -4.30429
H          2.89281        0.89712       -4.24646
H          3.85520       -0.59349       -4.39433
B         -0.24069        1.72262       -0.58593
O          0.46321        2.80111       -0.10691
C          0.39175        3.86245       -1.05726
C          0.34649        5.18377       -0.31222
H         -0.45393        5.18713        0.43847
H          1.30055        5.34034        0.21213
H          0.19276        6.02577       -1.00479
C          1.64528        3.77748       -1.92171
H          1.71032        4.60720       -2.64123
H          2.52371        3.81331       -1.26125
H          1.67256        2.81962       -2.45973
C         -0.91283        3.51081       -1.84871
O         -0.94930        2.08411       -1.72988
C         -0.89197        3.88536       -3.31882
H         -0.07510        3.37946       -3.84993
H         -1.84164        3.58990       -3.78944
H         -0.77417        4.97243       -3.44581
C         -2.17452        4.04634       -1.18039
H         -2.18723        3.79542       -0.11027
H         -2.26675        5.13680       -1.29185
H         -3.04963        3.57068       -1.64629
B          1.30074        0.06813        1.42939
O          1.45850       -0.79866        2.50912
C          2.35766       -0.18407        3.43455
C          1.51657        0.63026        4.41397
H          0.94707        1.41458        3.89437
H          0.79223       -0.03850        4.90193
H          2.13270        1.09843        5.19523
C          3.11973       -1.26894        4.17242
H          2.42430       -1.84424        4.80139
H          3.89007       -0.83478        4.82782
H          3.59854       -1.96632        3.47362
C          3.22611        0.71482        2.49002
O          2.31381        1.00968        1.42716
C          3.68908        2.02450        3.10123
H          4.32557        1.84725        3.98185
H          4.27614        2.58632        2.36028
H          2.83691        2.64980        3.39542
C          4.40951       -0.04399        1.90288
H          4.07369       -0.97505        1.42536
H          4.89388        0.58227        1.14029
H          5.16053       -0.28111        2.67008
H         -1.29566       -5.97238        1.82784
H         -1.49408       -3.46944       -4.66954
C         -2.43384        0.31570        0.74518
C         -3.52726       -0.41785        0.27629
C         -2.83420        1.35735        1.60476
C         -4.87932       -0.19396        0.55176
F         -3.30696       -1.48045       -0.53505
Cl        -1.66406        2.42652        2.36760
C         -4.15970        1.64393        1.93378
C         -5.18154        0.86975        1.39920
C         -5.92870       -1.07956       -0.04837
H         -4.37896        2.47369        2.60701
H         -6.22346        1.08861        1.64671
H         -5.78742       -2.12978        0.25300
H         -5.88771       -1.06073       -1.14902
H         -6.93406       -0.76457        0.26403
