99
Int2_comp43_0_Sub17.log	Energy: -1732789.3413601
N          0.62956       -2.16274       -0.70451
C          1.25550       -2.76160        0.32046
C          1.88179       -4.00195        0.16260
C          1.85240       -4.61982       -1.08055
C          1.19234       -3.98858       -2.13103
C          0.59091       -2.75711       -1.89636
H          0.03232       -2.22408       -2.66713
H          1.14151       -4.43778       -3.12403
H          2.39969       -4.47565        0.99571
C          1.24338       -2.02656        1.59950
N          0.68860       -0.79636        1.58279
C          0.65013       -0.06109        2.70227
C          1.16152       -0.52960        3.90520
C          1.73246       -1.79831        3.94511
C          1.77421       -2.55184        2.78055
H          2.21623       -3.54694        2.78782
H          1.11126        0.10376        4.79186
H          0.20070        0.93005        2.59770
Ir        -0.08689       -0.06266       -0.28939
H         -0.41791        0.52511       -1.73624
B         -1.87562       -0.62823        0.74164
O         -2.45956       -1.87766        0.81012
C         -3.12539       -2.00888        2.07329
C         -4.40534       -2.80027        1.87648
H         -5.05204       -2.34038        1.11883
H         -4.96900       -2.87766        2.81857
H         -4.15935       -3.81786        1.53966
C         -2.17683       -2.77475        2.98967
H         -2.63244       -2.98880        3.96728
H         -1.91776       -3.72893        2.50840
H         -1.24476       -2.21672        3.15506
C         -3.33305       -0.51300        2.51082
O         -2.30810        0.16672        1.78078
C         -4.66548        0.07172        2.06230
H         -4.81817       -0.08798        0.98822
H         -5.51289       -0.36036        2.61418
H         -4.65032        1.15685        2.23880
C         -3.12495       -0.24953        3.99225
H         -2.11218       -0.52503        4.31337
H         -3.26092        0.82319        4.19251
H         -3.85335       -0.80705        4.60049
B         -0.45288        1.88150        0.15604
O         -0.85932        2.84120       -0.74999
C         -1.19811        4.02260       -0.02207
C         -0.90595        5.23775       -0.88079
H          0.12618        5.22218       -1.25397
H         -1.58013        5.24472       -1.74982
H         -1.06637        6.16900       -0.31584
C         -2.68691        3.93330        0.30145
H         -3.05953        4.84157        0.79809
H         -3.23892        3.79002       -0.63831
H         -2.88970        3.06000        0.93890
C         -0.29855        3.88331        1.24850
O         -0.24584        2.46039        1.40213
C         -0.87375        4.49662        2.51058
H         -1.82996        4.02923        2.77901
H         -0.17513        4.34938        3.34785
H         -1.03008        5.57916        2.38602
C          1.13062        4.36187        1.01563
H          1.54528        3.91898        0.09798
H          1.19322        5.45810        0.94884
H          1.75586        4.02775        1.85648
B         -1.84566       -0.24477       -1.39005
O         -1.96533       -1.25532       -2.34509
C         -2.93850       -0.83527       -3.30402
C         -2.19821       -0.08443       -4.40779
H         -1.70352        0.81461       -4.01151
H         -1.42175       -0.74124       -4.82676
H         -2.87118        0.21701       -5.22353
C         -3.63005       -2.05998       -3.87263
H         -2.91040       -2.65247       -4.45679
H         -4.45553       -1.77279       -4.54169
H         -4.02501       -2.70083       -3.07430
C         -3.85103        0.10573       -2.44663
O         -2.93480        0.60885       -1.46974
C         -4.44701        1.28074       -3.20046
H         -5.09160        0.93697       -4.02403
H         -5.06022        1.88268       -2.51395
H         -3.66400        1.93242       -3.60798
C         -4.94520       -0.66053       -1.71367
H         -4.51554       -1.49390       -1.13955
H         -5.44780        0.02246       -1.01431
H         -5.70268       -1.05384       -2.40669
H          2.34334       -5.58436       -1.22655
H          2.14438       -2.19922        4.87373
C          1.84549        0.67667       -0.68577
S          3.20523        0.30253        0.32909
C          2.28483        1.49664       -1.70819
C          4.32922        1.21972       -0.61446
C          3.67608        1.79646       -1.67478
H          1.60563        1.88937       -2.46706
C          5.77865        1.29691       -0.27578
H          4.18571        2.42391       -2.41021
H          5.94447        1.48191        0.79761
H          6.24554        2.12796       -0.82459
C          6.56759        0.05445       -0.62201
F          6.14527       -1.01451        0.06210
F          7.86538        0.22247       -0.32609
F          6.49223       -0.24466       -1.91942
