115
Int2_comp4_2_Sub19.log	Energy: -1823532.4771202
N          0.72759       -2.38159        0.72094
C          0.88665       -3.20582       -0.32623
C          1.04630       -4.58251       -0.14644
C          1.00106       -5.10649        1.13893
C          0.78995       -4.24379        2.21005
C          0.66601       -2.88304        1.95276
H          0.53467       -2.15729        2.75441
H          0.72888       -4.61110        3.23555
H          1.19373       -5.24284       -1.00020
C          0.80967       -2.57418       -1.65594
N          0.63293       -1.23602       -1.67738
C          0.47563       -0.60283       -2.84600
C          0.48696       -1.28127       -4.05858
C          0.67791       -2.65929       -4.05760
C          0.84217       -3.30918       -2.84225
H          0.98240       -4.38861       -2.81391
H          0.34492       -0.72347       -4.98519
H          0.34395        0.48097       -2.78060
Ir         0.70296       -0.18772        0.20289
H          0.60559        0.56839        1.60841
B          2.72206       -0.13566       -0.49780
O          3.67428       -1.13218       -0.40480
C          4.61529       -0.98832       -1.47808
C          6.00594       -1.30300       -0.95726
H          6.27026       -0.67051       -0.10104
H          6.76201       -1.16161       -1.74439
H          6.04492       -2.35207       -0.62927
C          4.22390       -2.00034       -2.54771
H          4.94523       -2.01891       -3.37746
H          4.19008       -3.00044       -2.09152
H          3.22912       -1.78254       -2.95770
C          4.40082        0.50309       -1.93315
O          3.08122        0.78391       -1.46054
C          5.34234        1.48811       -1.25363
H          5.28834        1.38509       -0.16347
H          6.38407        1.35469       -1.57948
H          5.02818        2.51096       -1.50515
C          4.42618        0.71832       -3.43704
H          3.64708        0.13287       -3.94166
H          4.24077        1.78030       -3.65438
H          5.40518        0.44816       -3.86113
B          0.61867        1.74489       -0.42749
O          0.75794        2.85566        0.38060
C          0.84914        4.01386       -0.44986
C          0.22219        5.19185        0.27122
H         -0.80157        4.96392        0.59486
H          0.81519        5.43076        1.16617
H          0.20096        6.08384       -0.37378
C          2.33423        4.26106       -0.69628
H          2.51358        5.18046       -1.27327
H          2.83680        4.34824        0.27766
H          2.77866        3.40365       -1.22133
C          0.09032        3.55277       -1.73928
O          0.32976        2.14087       -1.72754
C          0.62956        4.13006       -3.03518
H          1.67586        3.83905       -3.19442
H          0.03779        3.75473       -3.88355
H          0.56246        5.22880       -3.03505
C         -1.41774        3.75869       -1.65028
H         -1.82194        3.35374       -0.71151
H         -1.69024        4.82174       -1.72623
H         -1.89726        3.21745       -2.47902
B          2.19341        0.19588        1.60105
O          2.40098       -0.71269        2.63843
C          3.02402       -0.01084        3.71467
C          1.91391        0.54028        4.60611
H          1.28133        1.25279        4.05652
H          1.27589       -0.29249        4.93658
H          2.31372        1.04331        5.49850
C          3.89163       -0.98001        4.49562
H          3.25441       -1.73110        4.98551
H          4.46394       -0.45779        5.27745
H          4.59042       -1.50979        3.83606
C          3.80045        1.11794        2.95564
O          2.98831        1.31570        1.79378
C          3.90460        2.43661        3.70015
H          4.44715        2.31291        4.65008
H          4.45436        3.16253        3.08339
H          2.91296        2.85794        3.90720
C          5.17997        0.65913        2.50050
H          5.10737       -0.27579        1.92703
H          5.61941        1.43217        1.85459
H          5.85865        0.50688        3.35193
H          1.11974       -6.18025        1.29970
H          0.69550       -3.22499       -4.99158
C         -1.45096       -0.01052        0.34831
C         -2.46550       -0.84118       -0.12854
C         -1.93466        1.14630        1.03781
Cl        -2.17166       -2.35763       -0.96258
C         -3.82341       -0.52663        0.03802
N         -3.20033        1.50516        1.23456
H         -1.19829        1.84287        1.44975
C         -4.09728        0.67549        0.72982
C         -5.08556       -1.10392       -0.31021
N         -5.46146        0.81337        0.78950
C         -6.06398       -0.25739        0.16343
H         -5.25478       -2.03302       -0.84924
H         -5.92851        1.58911        1.23651
C         -7.54998       -0.37244        0.07176
H         -7.75159       -1.31472       -0.46696
H         -7.71206        0.80549       -1.74012
C         -8.17614        0.76964       -0.74192
H         -7.93670        1.73319       -0.25554
C         -9.68969        0.62445       -0.84984
H        -10.11297        1.47233       -1.41236
H         -9.92365       -0.28311       -1.43556
C        -10.34221        0.51555        0.52399
H        -11.43041        0.37348        0.42324
H        -10.20299        1.46811        1.06739
C         -9.73026       -0.61847        1.33922
H         -9.96603       -1.58275        0.85339
H        -10.18266       -0.66013        2.34326
C         -8.21673       -0.47570        1.45125
H         -7.97961        0.43189        2.03649
H         -7.78172       -1.32174        2.00625
