98
Int2_comp169_0_Sub6.log	Energy: -1680769.1070010
N         -0.77424        2.15487        1.34542
C         -1.19763        3.11178        0.50164
C         -1.97605        4.18240        0.94988
C         -2.28675        4.27366        2.30069
C         -1.80472        3.29879        3.16877
C         -1.05667        2.25053        2.64418
H         -0.68551        1.44140        3.27156
H         -2.00872        3.33727        4.23982
H         -2.33602        4.93913        0.25366
C         -0.73879        2.98230       -0.89294
N         -0.05359        1.86021       -1.20101
C          0.42697        1.69049       -2.44046
C          0.25921        2.64910       -3.43179
C         -0.43410        3.81800       -3.13005
C         -0.93887        3.98198       -1.84771
H         -1.47720        4.89097       -1.58363
H          0.67656        2.47123       -4.42382
H          0.95187        0.74675       -2.61695
Ir         0.17019        0.36620        0.32945
H          0.47724       -0.65855        1.51742
B         -1.65789       -0.17821       -0.65086
O         -2.90739        0.37722       -0.46633
C         -3.66894        0.23761       -1.67548
C         -5.10385       -0.09899       -1.31259
H         -5.16304       -0.99955       -0.68914
H         -5.71156       -0.25780       -2.21613
H         -5.54339        0.73505       -0.74626
C         -3.61913        1.58388       -2.38695
H         -4.25054        1.59423       -3.28701
H         -3.98097        2.36106       -1.69794
H         -2.59356        1.84250       -2.68124
C         -2.89676       -0.89734       -2.44785
O         -1.59832       -0.85191       -1.84977
C         -3.45838       -2.29099       -2.20372
H         -3.52810       -2.49942       -1.12997
H         -4.44954       -2.42089       -2.66171
H         -2.77383       -3.03111       -2.64176
C         -2.74272       -0.65941       -3.94067
H         -2.20098        0.27201       -4.14876
H         -2.16721       -1.48642       -4.38116
H         -3.72243       -0.62013       -4.44035
B          0.99786       -1.15981       -0.73814
O          1.27190       -2.41373       -0.23713
C          1.65258       -3.26737       -1.31817
C          2.68678       -4.25954       -0.82000
H          3.52881       -3.75026       -0.33315
H          2.22391       -4.92961       -0.08081
H          3.07306       -4.87640       -1.64585
C          0.38592       -3.98638       -1.77086
H          0.58579       -4.72166       -2.56423
H         -0.04547       -4.50686       -0.90402
H         -0.35934       -3.25887       -2.12288
C          2.18463       -2.24327       -2.37948
O          1.44125       -1.06218       -2.04828
C          1.88989       -2.61347       -3.82166
H          0.80934       -2.68154       -4.00178
H          2.30073       -1.84483       -4.49329
H          2.35555       -3.57559       -4.08403
C          3.66274       -1.91601       -2.20710
H          3.89969       -1.66330       -1.16480
H          4.30441       -2.75251       -2.51983
H          3.90774       -1.04153       -2.82748
B         -1.13067       -0.92621        1.32562
O         -1.73458       -0.50597        2.50918
C         -2.07643       -1.67255        3.26124
C         -0.88497       -2.00601        4.15510
H          0.00826       -2.23806        3.55665
H         -0.65387       -1.13259        4.78240
H         -1.09318       -2.85915        4.81670
C         -3.29899       -1.36997        4.10699
H         -3.04364       -0.61675        4.86699
H         -3.65178       -2.27228        4.62915
H         -4.11761       -0.96890        3.49624
C         -2.29402       -2.73317        2.12909
O         -1.42011       -2.26063        1.09787
C         -1.88765       -4.14998        2.49162
H         -2.47446       -4.52390        3.34467
H         -2.06944       -4.81360        1.63369
H         -0.82040       -4.20891        2.73882
C         -3.71817       -2.71582        1.58913
H         -4.00668       -1.69873        1.28772
H         -3.77399       -3.37124        0.70880
H         -4.43868       -3.08735        2.33166
H         -2.89358        5.10275        2.67090
H         -0.57934        4.59546       -3.88300
C          2.24436        0.88311        0.68146
C          2.89983        2.12797        0.51911
C          3.07918       -0.19097        1.06242
C          4.29139        2.15143        0.69208
C          2.22103        3.42755        0.19950
C          4.44768       -0.00610        1.18761
H          2.67784       -1.19122        1.22035
F          4.92939        3.31535        0.52360
N          5.06349        1.14236        1.00450
Cl         5.44813       -1.38884        1.57189
H          1.27203        3.50861        0.74031
H          2.01297        3.53581       -0.87718
H          2.85140        4.27684        0.49064
