99
Int2_comp22_6_Sub10.log	Energy: -1676390.3713969
N          0.67816        2.15201       -1.40062
C          0.71636        3.27887       -0.67170
C          1.01261        4.51158       -1.26156
C          1.26985        4.56344       -2.62559
C          1.23520        3.38393       -3.36368
C          0.93746        2.19499       -2.70679
H          0.92980        1.23133       -3.21903
H          1.43740        3.37633       -4.43573
H          1.03987        5.42328       -0.66576
C          0.43598        3.12209        0.76932
N          0.16312        1.87184        1.19556
C         -0.06939        1.63815        2.49274
C         -0.05034        2.65809        3.43555
C          0.21714        3.95789        3.01571
C          0.46388        4.19057        1.66957
H          0.68330        5.19826        1.31966
H         -0.24785        2.42465        4.48262
H         -0.26828        0.59479        2.75470
Ir         0.05567        0.31459       -0.27983
H         -0.28774       -0.71526       -1.45026
B          2.04254        0.04265        0.50659
O          3.19312        0.67112        0.07690
C          4.07165        0.84142        1.19757
C          5.50229        0.63498        0.73519
H          5.63215       -0.34059        0.24999
H          6.20373        0.70266        1.58043
H          5.76824        1.41350        0.00542
C          3.88454        2.27346        1.68710
H          4.57767        2.52268        2.50342
H          4.07125        2.95972        0.84824
H          2.85773        2.44281        2.03990
C          3.54257       -0.23261        2.21813
O          2.19284       -0.43038        1.78765
C          4.25132       -1.57580        2.10924
H          4.26465       -1.92940        1.07148
H          5.28424       -1.52789        2.48345
H          3.69644       -2.31340        2.70658
C          3.52299        0.22274        3.66732
H          2.88967        1.10862        3.80449
H          3.11390       -0.58248        4.29446
H          4.53803        0.45402        4.02429
B         -0.65709       -1.22938        0.83238
O         -1.34247       -2.30904        0.28460
C         -1.56453       -3.27511        1.32085
C         -2.86606       -4.00553        1.05218
H         -3.70409       -3.31002        0.91373
H         -2.76989       -4.60253        0.13347
H         -3.10782       -4.69089        1.87896
C         -0.38604       -4.24198        1.28292
H         -0.50019       -5.05687        2.01271
H         -0.32395       -4.67793        0.27578
H          0.55985       -3.71363        1.46976
C         -1.56739       -2.37366        2.59839
O         -0.67547       -1.31772        2.21365
C         -1.02532       -3.03867        3.84901
H          0.01996       -3.34444        3.71417
H         -1.06697       -2.33358        4.69245
H         -1.62446       -3.92272        4.11539
C         -2.92828       -1.74264        2.87211
H         -3.33988       -1.27046        1.96851
H         -3.65455       -2.48038        3.24249
H         -2.81126       -0.96107        3.63721
B          1.34128       -1.00399       -1.25822
O          1.89389       -0.68167       -2.49728
C          2.18847       -1.90795       -3.17262
C          0.95516       -2.28836       -3.98724
H          0.08640       -2.46184       -3.33516
H          0.70746       -1.46012       -4.66715
H          1.12404       -3.19107       -4.59188
C          3.37894       -1.69308       -4.08787
H          3.10373       -0.99762       -4.89447
H          3.69715       -2.63985       -4.55022
H          4.22754       -1.25961       -3.54383
C          2.44060       -2.88474       -1.97416
O          1.61150       -2.32716       -0.94883
C          2.01255       -4.32038       -2.21734
H          2.56541       -4.75981       -3.06168
H          2.22147       -4.92247       -1.32106
H          0.93683       -4.38762       -2.42303
C          3.88175       -2.84014       -1.48216
H          4.19669       -1.80243       -1.30023
H          3.94895       -3.39595       -0.53631
H          4.57383       -3.30151       -2.20112
H          1.49807        5.51747       -3.10565
H          0.23614        4.78477        3.72883
C         -1.96265        0.87135       -0.48826
N         -2.96025       -0.07475       -0.58703
C         -2.57803        2.11938       -0.52207
C         -4.18401        0.51769       -0.66595
H         -2.78225       -1.07490       -0.55404
C         -3.98757        1.92577       -0.63403
H         -2.07359        3.08283       -0.47049
C         -5.47983        0.01018       -0.73711
C         -5.13782        2.73335       -0.70489
N         -6.53989        0.76793       -0.79766
Cl        -5.68459       -1.73290       -0.73211
C         -6.37098        2.10381       -0.78750
H         -5.07514        3.82374       -0.69145
H         -7.28922        2.69789       -0.84409
