108
Int2_comp44_4_Sub12.log	Energy: -1417353.6714047
N          1.38627       -1.76879       -0.61499
C          2.01782       -2.20136        0.48820
C          2.74948       -3.39397        0.48629
C          2.83495       -4.13295       -0.68588
C          2.19261       -3.65991       -1.82679
C          1.47490       -2.47239       -1.74371
H          0.92805       -2.06960       -2.59534
H          2.24121       -4.19972       -2.77359
H          3.25326       -3.74054        1.38782
C          1.92626       -1.32007        1.66555
N          1.20288       -0.18894        1.51415
C          1.11715        0.68804        2.52363
C          1.75954        0.47734        3.73728
C          2.50857       -0.68291        3.91302
C          2.58976       -1.58950        2.86573
H          3.17555       -2.50080        2.97526
H          1.66725        1.22350        4.52767
H          0.50639        1.57394        2.32522
Ir         0.17577        0.11539       -0.35453
H         -0.41734        0.41748       -1.80638
B         -1.30906       -0.80430        0.88547
O         -1.44772       -2.14934        1.17088
C         -2.05116       -2.29774        2.46316
C         -3.02347       -3.46274        2.41909
H         -3.77456       -3.33262        1.63014
H         -3.54313       -3.57931        3.38218
H         -2.47241       -4.39180        2.21221
C         -0.92488       -2.60189        3.44383
H         -1.30568       -2.81141        4.45390
H         -0.37569       -3.48549        3.08728
H         -0.21574       -1.76598        3.50755
C         -2.71456       -0.89006        2.70263
O         -1.97048       -0.04285        1.82490
C         -4.17196       -0.82211        2.26733
H         -4.28403       -1.16609        1.23259
H         -4.82553       -1.42013        2.91887
H         -4.50439        0.22504        2.30744
C         -2.57420       -0.35372        4.11740
H         -1.52072       -0.24721        4.40616
H         -3.03907        0.64123        4.17493
H         -3.07733       -1.00987        4.84377
B         -0.78130        1.87177       -0.00458
O         -1.59971        2.52609       -0.90577
C         -2.28133        3.57228       -0.21335
C         -2.54068        4.71773       -1.17294
H         -1.61469        5.04544       -1.66286
H         -3.24065        4.38941       -1.95527
H         -2.98937        5.57703       -0.65101
C         -3.59554        2.98329        0.29175
H         -4.22948        3.73823        0.78029
H         -4.13913        2.56253       -0.56607
H         -3.39912        2.15894        0.99263
C         -1.28205        3.89848        0.94543
O         -0.66446        2.62468        1.15791
C         -1.93320        4.35052        2.23932
H         -2.59929        3.57533        2.63954
H         -1.15871        4.55725        2.99316
H         -2.51283        5.27402        2.08739
C         -0.18375        4.86958        0.52767
H          0.29665        4.54015       -0.40519
H         -0.56699        5.89239        0.39683
H          0.58920        4.88669        1.31003
B         -1.48592       -0.72815       -1.28081
O         -1.32221       -1.83309       -2.11833
C         -2.41413       -1.84938       -3.03837
C         -1.99492       -1.03839       -4.26200
H         -1.79190        0.00850       -3.99243
H         -1.06920       -1.46681       -4.67358
H         -2.76186       -1.05486       -5.04988
C         -2.70231       -3.28549       -3.43404
H         -1.85330       -3.68713       -4.00684
H         -3.60002       -3.34912       -4.06778
H         -2.84370       -3.92135       -2.55102
C         -3.54321       -1.14655       -2.21096
O         -2.79621       -0.27777       -1.35509
C         -4.50792       -0.30649       -3.02847
H         -5.04135       -0.92302       -3.76832
H         -5.25371        0.14863       -2.36036
H         -3.98666        0.50608       -3.54978
C         -4.31230       -2.12797       -1.33537
H         -3.62174       -2.71643       -0.71442
H         -4.98312       -1.56316       -0.67291
H         -4.92807       -2.81341       -1.93516
H          3.40454       -5.06438       -0.70883
H          3.02687       -0.88035        4.85369
C          1.70977        1.42254       -1.06402
C          3.04215        1.60722       -0.76709
C          1.43560        2.44797       -2.05164
O          3.56735        2.65244       -1.48359
C          4.01389        0.93136        0.13340
C          2.58315        3.14612       -2.25951
H          0.47409        2.63685       -2.52582
C          5.22092        0.21855       -0.52796
H          3.45583        0.18679        0.70779
H          4.40969        1.65402        0.87144
H          2.84941        3.98511       -2.89857
C          4.75204       -0.65808       -1.68789
H          5.60503       -1.17942       -2.15167
H          4.03640       -1.42001       -1.34647
H          4.25018       -0.05756       -2.46109
C          6.24311        1.23792       -1.03475
H          6.60719        1.87229       -0.21032
H          7.11386        0.72738       -1.47773
H          5.80153        1.89853       -1.79256
C          5.87877       -0.65912        0.53944
H          6.77571       -1.16235        0.14385
H          6.18623       -0.05992        1.41201
H          5.18381       -1.43820        0.89406
