100
Int2_comp44_4_Sub16.log	Energy: -1390565.3202604
N          1.80960       -1.57293       -0.56059
C          2.46612       -1.89952        0.56424
C          3.27999       -3.03546        0.62732
C          3.43117       -3.82202       -0.50661
C          2.77107       -3.45102       -1.67500
C          1.96381       -2.31957       -1.65362
H          1.39534       -2.00253       -2.52709
H          2.86997       -4.03046       -2.59414
H          3.79606       -3.30110        1.54913
C          2.30680       -0.96429        1.69238
N          1.47469        0.08106        1.49299
C          1.31343        0.99793        2.45677
C          1.98482        0.91552        3.67030
C          2.84796       -0.15365        3.89372
C          3.00816       -1.10175        2.89330
H          3.68472       -1.94238        3.03917
H          1.82604        1.68911        4.42288
H          0.61273        1.80550        2.22398
Ir         0.39697        0.17796       -0.37070
H         -0.24145        0.34892       -1.82487
B         -0.95599       -0.86433        0.92559
O         -0.91175       -2.20072        1.27340
C         -1.48651       -2.36888        2.57657
C         -2.29714       -3.65229        2.59131
H         -3.06124       -3.65669        1.80412
H         -2.79394       -3.79406        3.56299
H         -1.62912       -4.50892        2.41955
C         -0.32740       -2.47913        3.55972
H         -0.67473       -2.69337        4.58077
H          0.33290       -3.29711        3.23654
H          0.26497       -1.55495        3.58252
C         -2.32826       -1.05077        2.76084
O         -1.71054       -0.15514        1.83424
C         -3.78600       -1.19625        2.34635
H         -3.86319       -1.60265        1.33138
H         -4.34789       -1.84230        3.03638
H         -4.25365       -0.20129        2.34270
C         -2.24756       -0.43336        4.14710
H         -1.21530       -0.17326        4.41399
H         -2.84105        0.49222        4.16586
H         -2.65148       -1.11503        4.91091
B         -0.76828        1.81497       -0.07264
O         -1.66952        2.32910       -0.98526
C         -2.47677        3.30028       -0.31864
C         -2.88817        4.37124       -1.31070
H         -2.01597        4.80204       -1.81922
H         -3.54319        3.92963       -2.07595
H         -3.44280        5.18054       -0.81122
C         -3.70129        2.56304        0.21643
H         -4.42366        3.24518        0.68898
H         -4.19155        2.05075       -0.62350
H         -3.39688        1.79188        0.93883
C         -1.52190        3.79025        0.82016
O         -0.73663        2.61764        1.06117
C         -2.21931        4.18640        2.10833
H         -2.77008        3.33920        2.53676
H         -1.47495        4.51830        2.84763
H         -2.92082        5.01735        1.93744
C         -0.56767        4.88873        0.36598
H         -0.05224        4.60185       -0.56202
H         -1.08671        5.84613        0.21102
H          0.20027        5.03282        1.14016
B         -1.16304       -0.89387       -1.23848
O         -0.87573       -2.01220       -2.02243
C         -1.96114       -2.19996       -2.93127
C         -1.63890       -1.41236       -4.19883
H         -1.55371       -0.33658       -3.98603
H         -0.67220       -1.75577       -4.59566
H         -2.40121       -1.55587       -4.97823
C         -2.08540       -3.67823       -3.24962
H         -1.19714       -4.01076       -3.80697
H         -2.97091       -3.87612       -3.87268
H         -2.15265       -4.27891       -2.33383
C         -3.16105       -1.58706       -2.13217
O         -2.51565       -0.59981       -1.32338
C         -4.21358       -0.90030       -2.98374
H         -4.67578       -1.60773       -3.68934
H         -5.00484       -0.49853       -2.33400
H         -3.78627       -0.06142       -3.54717
C         -3.81629       -2.60313       -1.20511
H         -3.06424       -3.08058       -0.56067
H         -4.54458       -2.08346       -0.56691
H         -4.35290       -3.38130       -1.76656
H          4.06451       -4.71126       -0.47910
H          3.39356       -0.24844        4.83489
C          1.76584        1.61337       -1.15374
C          3.09481        1.90170       -0.93415
C          1.36311        2.60955       -2.12545
O          3.50567        2.97239       -1.68348
C          4.19225        1.30559       -0.12438
C          2.44810        3.38361       -2.40063
H          0.36713        2.72120       -2.55054
O          5.27882        0.82484       -0.88168
H          3.77206        0.50577        0.50555
H          4.62761        2.06491        0.54522
H          2.61517        4.23167       -3.06157
C          4.95129       -0.22072       -1.74103
H          4.65308       -1.13581       -1.19011
H          4.12329        0.04107       -2.42635
H          5.84482       -0.45442       -2.33783
