111
Int2_comp152_1_Sub24.log	Energy: -1523003.6320817
N          0.02153        2.05620        1.49015
C          0.03176        3.22149        0.82287
C          0.13968        4.44253        1.49755
C          0.25393        4.44329        2.88098
C          0.25766        3.22589        3.55619
C          0.13470        2.05454        2.81839
H          0.09803        1.07411        3.29250
H          0.35253        3.17617        4.64192
H          0.14649        5.38390        0.94949
C         -0.04087        3.12385       -0.64702
N         -0.04773        1.87790       -1.16975
C         -0.06292        1.71357       -2.49959
C         -0.08336        2.79172       -3.37503
C         -0.09261        4.08304       -2.85546
C         -0.06955        4.24788       -1.47792
H         -0.07362        5.24785       -1.04692
H         -0.08903        2.60723       -4.45014
H         -0.04741        0.67666       -2.84550
Ir        -0.07387        0.21819        0.20087
H          0.10004       -0.97734        1.24293
B         -2.13544        0.42579       -0.35291
O         -3.07763        1.28514        0.17543
C         -4.04174        1.60194       -0.83889
C         -5.41563        1.69556       -0.20123
H         -5.67542        0.77505        0.33594
H         -6.18885        1.88888       -0.96015
H         -5.42922        2.52511        0.52067
C         -3.64323        2.95607       -1.41459
H         -4.37386        3.32042       -2.15114
H         -3.58313        3.68410       -0.59264
H         -2.65774        2.90883       -1.89736
C         -3.86687        0.42164       -1.86246
O         -2.53062       -0.01775       -1.59778
C         -4.79021       -0.75817       -1.59097
H         -4.70295       -1.08708       -0.54843
H         -5.84109       -0.51670       -1.80670
H         -4.48775       -1.59950       -2.23037
C         -3.95904        0.82822       -3.32291
H         -3.19422        1.57083       -3.58424
H         -3.80045       -0.05573       -3.95767
H         -4.95101        1.24335       -3.55718
B         -0.02509       -1.33792       -1.11187
O         -0.23685       -2.66534       -0.80661
C         -0.29315       -3.41512       -2.02040
C          0.29045       -4.79361       -1.77424
H          1.29329       -4.72665       -1.33264
H         -0.35360       -5.34389       -1.07262
H          0.35033       -5.37126       -2.70948
C         -1.76448       -3.51142       -2.41074
H         -1.91852       -4.13776       -3.30195
H         -2.31844       -3.94978       -1.56822
H         -2.17574       -2.50787       -2.59111
C          0.53537       -2.51677       -2.99809
O          0.30248       -1.20989       -2.45706
C          0.06687       -2.54313       -4.44091
H         -0.97087       -2.19651       -4.53081
H          0.70289       -1.88286       -5.04929
H          0.13753       -3.55925       -4.85816
C          2.03546       -2.77646       -2.91786
H          2.38321       -2.77379       -1.87479
H          2.31021       -3.73504       -3.38205
H          2.56311       -1.96966       -3.44677
B         -1.51228       -0.68902        1.40920
O         -1.68733       -0.22442        2.71283
C         -2.24853       -1.28931        3.48307
C         -1.08876       -2.08257        4.08021
H         -0.45894       -2.52188        3.29251
H         -0.45942       -1.40326        4.67382
H         -1.43837       -2.89042        4.73912
C         -3.10468       -0.69924        4.58772
H         -2.46598       -0.15277        5.29736
H         -3.63158       -1.48930        5.14414
H         -3.84266        0.00639        4.18602
C         -3.03140       -2.09662        2.39298
O         -2.26715       -1.83232        1.21241
C         -3.07258       -3.59766        2.61411
H         -3.57553       -3.84443        3.56178
H         -3.63175       -4.07297        1.79510
H         -2.06334       -4.02793        2.62255
C         -4.43912       -1.55647        2.17409
H         -4.41296       -0.47458        1.98091
H         -4.87967       -2.05663        1.30004
H         -5.08964       -1.75161        3.03865
H          0.34506        5.38598        3.42481
H         -0.11424        4.95396       -3.51393
C          2.07112        0.19838        0.14204
C          2.76793        1.34206       -0.20572
C          2.90752       -0.93557        0.45058
C          4.18228        1.38223       -0.28002
H          2.24859        2.27388       -0.44467
C          2.41613       -2.20628        0.85335
C          4.33068       -0.80144        0.34906
N          4.94484        0.35254       -0.01920
C          4.83817        2.67816       -0.71693
C          3.25496       -3.26221        1.12333
H          1.33988       -2.35923        0.91535
C          5.16921       -1.90932        0.63635
O          6.21500        2.74822       -0.57041
H          4.33408        3.51845       -0.18856
H          4.62994        2.81955       -1.79208
C          4.66277       -3.13281        1.01749
H          2.82621       -4.22379        1.42160
H          6.24471       -1.74428        0.53608
C          5.55295       -4.30314        1.31453
H          5.32287       -5.15538        0.65442
H          5.41531       -4.65524        2.35000
H          6.61329       -4.04739        1.18108
C          6.65157        2.78942        0.75576
H          6.19417        3.63627        1.30866
H          6.42794        1.85219        1.29220
H          7.74103        2.93660        0.73948
