95
Int2_comp15_2_Sub2.log	Energy: -1661771.8578202
N          1.41381       -1.79794       -1.02827
C          2.34107       -2.25121       -0.16974
C          3.29332       -3.19603       -0.56411
C          3.26964       -3.67552       -1.86658
C          2.28822       -3.21191       -2.73858
C          1.37777       -2.26902       -2.27530
H          0.57143       -1.87561       -2.89706
H          2.22666       -3.56631       -3.76863
H          4.06232       -3.53351        0.12937
C          2.28462       -1.69826        1.19652
N          1.40965       -0.69449        1.40861
C          1.30069       -0.15027        2.62593
C          2.06007       -0.59236        3.70164
C          2.95888       -1.63597        3.50504
C          3.06896       -2.19503        2.23984
H          3.76353       -3.01412        2.06172
H          1.94175       -0.11292        4.67424
H          0.59159        0.67441        2.71221
Ir         0.31629        0.03330       -0.29492
H         -0.29057        0.71757       -1.60823
B         -1.20111       -1.03399        0.77507
O         -1.50256       -2.37629        0.69302
C         -1.98217       -2.81842        1.97108
C         -3.07089       -3.85373        1.75879
H         -3.88079       -3.46557        1.12868
H         -3.49813       -4.17720        2.72004
H         -2.64528       -4.73609        1.25918
C         -0.79381       -3.45119        2.68785
H         -1.08194       -3.88646        3.65557
H         -0.38635       -4.25100        2.05291
H          0.00625       -2.71745        2.85962
C         -2.46420       -1.48010        2.63864
O         -1.68221       -0.49645        1.95008
C         -3.92808       -1.16141        2.36794
H         -4.14236       -1.20327        1.29307
H         -4.60281       -1.85020        2.89651
H         -4.13824       -0.13805        2.70976
C         -2.17396       -1.37181        4.12522
H         -1.09885       -1.44583        4.33340
H         -2.52347       -0.39687        4.49532
H         -2.69823       -2.15838        4.68882
B         -0.46746        1.74618        0.48716
O         -1.44578        2.53411       -0.07610
C         -1.90302        3.46169        0.90708
C         -2.32157        4.74676        0.21834
H         -1.52072        5.13433       -0.42437
H         -3.19903        4.55255       -0.41564
H         -2.59422        5.51964        0.95340
C         -3.09368        2.81385        1.60737
H         -3.56561        3.48896        2.33667
H         -3.83553        2.53911        0.84398
H         -2.78137        1.88776        2.11088
C         -0.65203        3.59024        1.83801
O         -0.04815        2.29873        1.69292
C         -0.96552        3.82695        3.30329
H         -1.56423        3.00680        3.72034
H         -0.02943        3.89393        3.87764
H         -1.51595        4.77032        3.44013
C          0.35824        4.61555        1.33554
H          0.57530        4.45961        0.26901
H          0.00313        5.64675        1.47803
H          1.29682        4.49032        1.89496
B         -1.46138       -0.39717       -1.30254
O         -1.42923       -1.28337       -2.37954
C         -2.56779       -1.00958       -3.20085
C         -2.14470        0.03490       -4.23043
H         -1.83360        0.97012       -3.74178
H         -1.28459       -0.35127       -4.79690
H         -2.95187        0.26166       -4.94177
C         -2.99676       -2.28953       -3.89247
H         -2.22020       -2.60333       -4.60570
H         -3.93152       -2.13981       -4.45389
H         -3.14149       -3.10331       -3.17083
C         -3.58738       -0.44507       -2.15534
O         -2.72416        0.15087       -1.18171
C         -4.52335        0.62459       -2.68743
H         -5.14608        0.23380       -3.50680
H         -5.19055        0.96123       -1.88060
H         -3.96639        1.49890       -3.04672
C         -4.38098       -1.54828       -1.46653
H         -3.70574       -2.30935       -1.05015
H         -4.95903       -1.10674       -0.64241
H         -5.08869       -2.03220       -2.15477
H          4.01438       -4.40282       -2.19703
H          3.57212       -2.01173        4.32684
C          2.11418        1.03689       -0.79549
C          2.28534        2.18933       -1.59807
N          3.25426        0.48161       -0.34635
C          3.56395        2.68117       -1.85431
Cl         0.94779        3.02561       -2.30091
C          4.43097        1.01104       -0.64941
N          4.65889        2.09543       -1.37967
H          3.69500        3.57858       -2.46856
C          5.57782        0.29474       -0.12363
N          6.46177       -0.31753        0.30661
