107
Int2_comp33_11_Sub16.log	Energy: -1568044.8745627
N          0.07235       -1.86865       -1.67021
C          0.18506       -3.04269       -1.03044
C          0.17709       -4.25336       -1.72725
C          0.07912       -4.23488       -3.11126
C         -0.00444       -3.00811       -3.76342
C         -0.00961       -1.84751       -2.99938
H         -0.10412       -0.86182       -3.45365
H         -0.06758       -2.94308       -4.85063
H          0.26997       -5.20110       -1.19870
C          0.37414       -2.96113        0.42787
N          0.47972       -1.71950        0.95176
C          0.71176       -1.56526        2.26357
C          0.82893       -2.64981        3.12274
C          0.69602       -3.93571        2.60641
C          0.47101       -4.08969        1.24572
H          0.36771       -5.08472        0.81593
H          1.01555       -2.47414        4.18301
H          0.78399       -0.53047        2.60984
Ir         0.01740       -0.05898       -0.34159
H         -0.20679        1.16693       -1.34083
B         -1.86194       -0.52071        0.58605
O         -2.79606       -1.47166        0.22842
C         -3.55805       -1.84411        1.38690
C         -5.00921       -2.03350        0.98459
H         -5.42083       -1.13304        0.51332
H         -5.62812       -2.28534        1.85908
H         -5.08424       -2.85987        0.26274
C         -2.98450       -3.16505        1.88326
H         -3.56229       -3.57190        2.72574
H         -3.00870       -3.89239        1.05880
H         -1.94053       -3.04992        2.20147
C         -3.29708       -0.64800        2.37541
O         -2.07150       -0.10069        1.88180
C         -4.34461        0.45391        2.29001
H         -4.45297        0.80502        1.25672
H         -5.32341        0.12384        2.66696
H         -4.00978        1.30828        2.89522
C         -3.09144       -1.05502        3.82456
H         -2.23880       -1.73707        3.93546
H         -2.88437       -0.15847        4.42670
H         -3.99075       -1.54120        4.23213
B          0.11164        1.49579        0.97023
O         -0.17153        2.80819        0.65567
C         -0.14256        3.58097        1.85789
C          0.35359        4.97771        1.53617
H          1.30947        4.95158        0.99684
H         -0.37945        5.48863        0.89501
H          0.47920        5.57348        2.45334
C         -1.57275        3.62194        2.38657
H         -1.66876        4.25971        3.27772
H         -2.22400        4.01818        1.59446
H         -1.92036        2.60609        2.62385
C          0.81255        2.73536        2.76513
O          0.58075        1.40870        2.27404
C          0.48564        2.77557        4.24611
H         -0.52162        2.38601        4.44209
H          1.20556        2.15670        4.80236
H          0.55060        3.80321        4.63513
C          2.28584        3.05060        2.53334
H          2.52841        3.02931        1.46146
H          2.56538        4.03256        2.94192
H          2.89488        2.27998        3.02809
B         -1.71684        0.63440       -1.26392
O         -2.04255        0.16534       -2.53397
C         -2.87759        1.14499       -3.15543
C         -1.96635        2.12020       -3.89643
H         -1.29493        2.64458       -3.20053
H         -1.34397        1.55694       -4.60712
H         -2.53859        2.87102       -4.46015
C         -3.80653        0.44924       -4.13224
H         -3.21863        0.02268       -4.95832
H         -4.53152        1.15755       -4.56126
H         -4.35217       -0.37064       -3.64858
C         -3.57935        1.80109       -1.91806
O         -2.59262        1.64136       -0.89106
C         -3.88554        3.28025       -2.06379
H         -4.57264        3.46041       -2.90481
H         -4.36544        3.64704       -1.14471
H         -2.97036        3.86515       -2.21888
C         -4.83032        1.03994       -1.49989
H         -4.60457       -0.02616       -1.35796
H         -5.19913        1.44900       -0.54871
H         -5.63386        1.14204       -2.24320
H          0.08039       -5.16978       -3.67576
H          0.76869       -4.81165        3.25470
C          2.07188        0.51473       -0.69238
C          3.24494       -0.23496       -0.51681
C          2.27617        1.85646       -1.09497
C          3.25823       -1.68456       -0.15417
C          4.53736        0.30259       -0.72264
C          3.54587        2.39931       -1.29018
H          1.42228        2.52223       -1.22149
O          2.97539       -2.59113       -0.89610
O          3.67966       -1.87115        1.10346
C          4.70263        1.62556       -1.10687
O          5.56556       -0.55835       -0.54119
C          3.67037        3.77830       -1.65874
C          4.00426       -3.19579        1.47285
H          5.68483        2.06597       -1.26868
N          3.76421        4.89975       -1.94185
H          4.98306       -3.47176        1.04985
H          3.25020       -3.90761        1.11255
H          4.05498       -3.21472        2.56817
C          6.87281       -0.10051       -0.73423
H          7.03679        0.24866       -1.76901
H          7.12709        0.71910       -0.03919
H          7.53731       -0.95149       -0.53756
