93
Int2_comp57_1_Sub2.log	Energy: -3688117.9592558
N         -0.53972        2.05826        1.52974
C         -1.03098        3.15055        0.92435
C         -1.33679        4.30552        1.65115
C         -1.10378        4.32504        3.01970
C         -0.56421        3.19477        3.62675
C         -0.30054        2.07924        2.84040
H          0.09202        1.15553        3.26421
H         -0.35072        3.16830        4.69633
H         -1.73685        5.18780        1.15309
C         -1.15969        3.06949       -0.54161
N         -0.70836        1.93746       -1.12122
C         -0.70441        1.82763       -2.45563
C         -1.16315        2.84713       -3.27987
C         -1.65398        4.01255       -2.69991
C         -1.65169        4.12182       -1.31609
H         -2.02470        5.02636       -0.83813
H         -1.12969        2.71609       -4.36225
H         -0.30536        0.88995       -2.85021
Ir        -0.13440        0.30459        0.16516
H          0.42124       -0.88301        1.07894
B         -2.14462       -0.13779       -0.35853
O         -3.30559        0.31570        0.23716
C         -4.36722        0.28157       -0.72850
C         -5.65615       -0.12312       -0.03810
H         -5.55169       -1.08200        0.48356
H         -6.47929       -0.20599       -0.76403
H         -5.93088        0.64015        0.70464
C         -4.49745        1.69353       -1.28749
H         -5.34651        1.78438       -1.98033
H         -4.65290        2.39034       -0.45110
H         -3.58350        1.99736       -1.81561
C         -3.83394       -0.74863       -1.78611
O         -2.41652       -0.65607       -1.60893
C         -4.22865       -2.18775       -1.48198
H         -3.93614       -2.45848       -0.45970
H         -5.30758       -2.35645       -1.61090
H         -3.68689       -2.85555       -2.16608
C         -4.16544       -0.40808       -3.22815
H         -3.74715        0.56398       -3.51965
H         -3.73614       -1.17279       -3.89180
H         -5.25393       -0.38882       -3.38999
B          0.32851       -1.11179       -1.22364
O          0.40655       -2.46976       -1.03314
C          0.65472       -3.09817       -2.29119
C          1.53930       -4.31025       -2.06708
H          2.44164       -4.04308       -1.50257
H          0.98808       -5.06302       -1.48470
H          1.83686       -4.76669       -3.02375
C         -0.69810       -3.51545       -2.85787
H         -0.59849       -4.07758       -3.79824
H         -1.20241       -4.15274       -2.11716
H         -1.33034       -2.63160       -3.02265
C          1.32070       -1.94210       -3.10968
O          0.71495       -0.78506       -2.51993
C          1.02252       -1.95408       -4.59692
H         -0.05495       -1.87131       -4.79018
H          1.52418       -1.10338       -5.08189
H          1.39450       -2.87852       -5.06449
C          2.82253       -1.83305       -2.86778
H          3.05238       -1.85036       -1.79308
H          3.37751       -2.64464       -3.36076
H          3.17666       -0.87229       -3.26859
B         -1.12276       -0.99380        1.44590
O         -1.30237       -0.61348        2.77318
C         -1.54633       -1.79713        3.53750
C         -0.19550       -2.30523        4.03365
H          0.46750       -2.55845        3.19375
H          0.29262       -1.50962        4.61554
H         -0.30072       -3.18882        4.67960
C         -2.43952       -1.44661        4.71269
H         -1.89856       -0.77926        5.39979
H         -2.72741       -2.34924        5.27283
H         -3.34809       -0.92732        4.38298
C         -2.19230       -2.74275        2.46835
O         -1.59450       -2.27904        1.25194
C         -1.86244       -4.21470        2.63361
H         -2.22602       -4.59524        3.60052
H         -2.34873       -4.79077        1.83304
H         -0.78194       -4.39151        2.56310
C         -3.69900       -2.54509        2.36250
H         -3.94061       -1.48503        2.20302
H         -4.07708       -3.11996        1.50526
H         -4.21864       -2.90342        3.26265
H         -1.33167        5.21942        3.60362
H         -2.03203        4.83096       -3.31629
C          1.96987        0.80163        0.13504
C          2.60356        1.94625       -0.27818
C          3.01264       -0.12090        0.53350
S          4.34344        1.92984       -0.23217
Cl         1.93177        3.44135       -0.83650
C          4.30208        0.32815        0.39085
Cl         2.73731       -1.70915        1.16071
Br         5.88066       -0.58268        0.77100
