100
Int2_comp159_0_Sub9.log	Energy: -1839982.1622292
N         -0.47423       -1.90867        1.12570
C         -1.01123       -2.79486        0.27262
C         -1.74069       -3.89349        0.73622
C         -1.89993       -4.06847        2.10401
C         -1.31337       -3.15450        2.97596
C         -0.60592       -2.08440        2.44059
H         -0.10404       -1.33976        3.06234
H         -1.40448       -3.25970        4.05806
H         -2.19782       -4.59272        0.03738
C         -0.75915       -2.54373       -1.15931
N         -0.12152       -1.39629       -1.46897
C          0.17750       -1.11571       -2.74320
C         -0.14699       -1.98029       -3.78027
C         -0.80173       -3.17212       -3.48123
C         -1.10761       -3.45619       -2.15831
H         -1.61092       -4.38618       -1.89898
H          0.11294       -1.71112       -4.80491
H          0.68177       -0.16029       -2.90847
Ir         0.23961       -0.02785        0.13806
H          0.21365        1.04240        1.32807
B          2.22284       -0.79041       -0.20829
O          2.87192       -0.43756       -1.36880
C          3.99971       -1.29593       -1.56671
C          4.08212       -1.65075       -3.04137
H          3.14118       -2.08191       -3.40657
H          4.89658       -2.36609       -3.23175
H          4.28313       -0.73962       -3.62341
C          5.23865       -0.51346       -1.15306
H          6.16327       -1.08066       -1.33377
H          5.27841        0.41578       -1.73957
H          5.19174       -0.23723       -0.09292
C          3.67542       -2.50616       -0.61650
O          2.78580       -1.92145        0.34399
C          2.89825       -3.62036       -1.31036
H          2.02842       -3.22275       -1.85201
H          3.52561       -4.17892       -2.01993
H          2.52819       -4.31882       -0.54598
C          4.87384       -3.08578        0.11205
H          5.37251       -2.33059        0.73266
H          4.54308       -3.90111        0.77169
H          5.60699       -3.49559       -0.59909
B          0.67319        1.66816       -0.89688
O          0.69380        2.94011       -0.35015
C          1.27070        3.82940       -1.30943
C          0.66370        5.20883       -1.13869
H         -0.43286        5.17319       -1.17377
H          0.95688        5.62044       -0.16191
H          1.02122        5.89679       -1.92026
C          2.77171        3.86692       -1.03846
H          3.29125        4.58179       -1.69358
H          2.92996        4.16444        0.00757
H          3.21429        2.86813       -1.16364
C          0.92035        3.11742       -2.65682
O          0.91365        1.74085       -2.26280
C          1.93963        3.30677       -3.76422
H          2.91843        2.90485       -3.47310
H          1.60940        2.77516       -4.66920
H          2.05284        4.37184       -4.01826
C         -0.48159        3.45179       -3.15494
H         -1.22293        3.33046       -2.35151
H         -0.54681        4.47817       -3.54473
H         -0.74535        2.75636       -3.96527
B          1.74214        0.42562        1.51664
O          1.73942       -0.16441        2.78132
C          2.45336        0.70153        3.66736
C          1.44000        1.66474        4.27974
H          0.96778        2.28775        3.50586
H          0.64896        1.08246        4.77458
H          1.90049        2.32567        5.02822
C          3.10943       -0.13326        4.75079
H          2.33554       -0.59032        5.38502
H          3.75121        0.48838        5.39356
H          3.71323       -0.94180        4.31991
C          3.44555        1.41631        2.68876
O          2.71618        1.40905        1.45790
C          3.77574        2.85333        3.04912
H          4.25601        2.91268        4.03786
H          4.47230        3.26736        2.30546
H          2.87589        3.48125        3.05195
C          4.72595        0.61841        2.47524
H          4.49275       -0.42183        2.20576
H          5.29107        1.07419        1.64996
H          5.36425        0.62118        3.37042
H         -2.47795       -4.91289        2.48573
H         -1.07109       -3.87689       -4.27094
C         -1.80453        0.44128       -0.07762
N         -2.64294       -0.53933       -0.44667
C         -2.38417        1.70662        0.17013
C         -3.92859       -0.30916       -0.54445
N         -3.68492        1.94041        0.06966
H         -1.74568        2.55073        0.44985
Cl        -4.92589       -1.65654       -1.04709
C         -4.49739        0.94294       -0.28153
C         -5.96769        1.22526       -0.35395
H         -6.46174        0.58422       -1.09612
H         -6.11203        2.27849       -0.62942
C         -6.67712        1.01207        0.96363
F         -6.54591       -0.24257        1.40548
F         -7.98774        1.25533        0.83673
F         -6.21105        1.81901        1.91727
