98
Int2_comp36_6_Sub18.log	Energy: -1906842.5925436
N         -0.29323        2.35776        1.05056
C         -0.41949        3.25174        0.05557
C         -0.97072        4.51431        0.28207
C         -1.35060        4.86573        1.57115
C         -1.15914        3.95053        2.60157
C         -0.63534        2.70107        2.29028
H         -0.49767        1.93564        3.05268
H         -1.41968        4.18952        3.63372
H         -1.10368        5.21710       -0.53981
C          0.14098        2.84247       -1.24483
N          0.54440        1.55976       -1.35420
C          1.19899        1.16274       -2.44892
C          1.46362        2.02009       -3.50877
C          1.01956        3.33568       -3.43078
C          0.35378        3.74867       -2.28506
H          0.03407        4.78442       -2.18029
H          2.00544        1.64755       -4.37892
H          1.48006        0.11009       -2.47103
Ir         0.15740        0.27714        0.31276
H          0.21997       -0.58517        1.65978
B         -1.79620        0.17122       -0.58533
O         -2.29054        1.33766       -1.14824
C         -3.07429        0.97856       -2.29126
C         -4.15090        2.02641       -2.49618
H         -4.73941        2.18202       -1.58315
H         -4.83033        1.74168       -3.31388
H         -3.68072        2.98463       -2.76215
C         -2.13482        0.93938       -3.49291
H         -2.67758        0.73867       -4.42797
H         -1.63465        1.91402       -3.58649
H         -1.36074        0.16913       -3.36066
C         -3.58532       -0.44440       -1.89143
O         -2.53718       -0.90705       -1.02771
C         -4.87976       -0.39464       -1.09171
H         -4.79189        0.29824       -0.24241
H         -5.72599       -0.07753       -1.71812
H         -5.10081       -1.39641       -0.69990
C         -3.72327       -1.42212       -3.04450
H         -2.76098       -1.58479       -3.54565
H         -4.07546       -2.39227       -2.66441
H         -4.45340       -1.05968       -3.78426
B          0.36549       -1.51608       -0.62771
O          0.51553       -2.74968       -0.02872
C          0.38426       -3.76597       -1.02256
C          1.28263       -4.93246       -0.65423
H          2.31909       -4.60620       -0.49445
H          0.92137       -5.39095        0.27790
H          1.27288       -5.70327       -1.44014
C         -1.07995       -4.19337       -1.02760
H         -1.26741       -5.01941       -1.72975
H         -1.34597       -4.52213       -0.01304
H         -1.72919       -3.34082       -1.27331
C          0.80310       -3.00165       -2.32256
O          0.40962       -1.65848       -2.01365
C          0.08545       -3.44673       -3.58258
H         -1.00072       -3.32432       -3.48534
H          0.42364       -2.84127       -4.43681
H          0.30242       -4.50229       -3.80686
C          2.31262       -2.99100       -2.54208
H          2.84569       -2.66778       -1.63556
H          2.69139       -3.97930       -2.84082
H          2.55138       -2.27873       -3.34619
B         -1.36024       -0.55344        1.49327
O         -1.67255       -1.88719        1.67520
C         -2.69683       -2.00979        2.65722
C         -4.02162       -2.20569        1.93434
H         -4.27270       -1.32128        1.33911
H         -3.92232       -3.05581        1.24440
H         -4.84480       -2.41184        2.63412
C         -2.39441       -3.22343        3.51965
H         -2.47661       -4.13375        2.90805
H         -3.10852       -3.30562        4.35345
H         -1.37542       -3.18471        3.92487
C         -2.60984       -0.63254        3.40638
O         -2.08596        0.22898        2.39203
C         -3.93729       -0.07616        3.88639
H         -4.40911       -0.75408        4.61376
H         -3.77518        0.89417        4.37862
H         -4.63022        0.08191        3.05048
C         -1.60195       -0.64727        4.55251
H         -0.62761       -1.03377        4.21901
H         -1.45430        0.38181        4.91273
H         -1.94828       -1.25778        5.39882
H         -1.78350        5.84880        1.76884
H          1.20336        4.03957       -4.24537
C          2.30323        0.26781        0.62774
C          3.22343        1.33069        0.58650
C          2.89943       -0.98767        0.84677
C          4.60304        1.15448        0.70048
Cl         2.73275        3.01294        0.43025
C          4.27628       -1.22993        0.95880
H          2.25639       -1.86716        0.91753
C          5.12569       -0.11838        0.87209
H          5.27261        2.01415        0.66193
N          4.76394       -2.51667        1.08387
Cl         6.84985       -0.34148        1.01374
H          5.71151       -2.58397        1.43608
H          4.12392       -3.17630        1.50749
