99
Int2_comp34_0_Sub10.log	Energy: -1702045.5737420
N         -0.00415       -2.20017        1.29148
C         -0.08888       -3.24707        0.45659
C          0.05192       -4.55759        0.92151
C          0.25826       -4.77645        2.27732
C          0.31844       -3.68127        3.13363
C          0.18807       -2.40679        2.59332
H          0.26669       -1.50992        3.20740
H          0.47179       -3.80347        4.20688
H         -0.00477       -5.40189        0.23543
C         -0.37579       -2.92401       -0.95292
N         -0.49896       -1.61647       -1.25853
C         -0.79617       -1.24654       -2.51055
C         -0.98674       -2.17507       -3.52643
C         -0.85766       -3.52939       -3.23258
C         -0.54853       -3.90457       -1.93256
H         -0.44464       -4.95818       -1.67783
H         -1.23083       -1.82750       -4.53122
H         -0.87014       -0.16778       -2.67778
Ir        -0.17532       -0.17664        0.31202
H         -0.15229        0.85768        1.52939
B          1.74342       -0.29578       -0.63196
O          2.72276       -1.24680       -0.42413
C          3.48539       -1.40533       -1.62844
C          4.94519       -1.60245       -1.26201
H          5.32206       -0.77717       -0.64517
H          5.57086       -1.67999       -2.16403
H          5.05597       -2.53324       -0.68676
C          2.95387       -2.65280       -2.32458
H          3.53585       -2.90006       -3.22417
H          3.01461       -3.49936       -1.62521
H          1.90195       -2.52972       -2.61504
C          3.17343       -0.07859       -2.41660
O          1.93764        0.34398       -1.83603
C          4.18880        1.02896       -2.17076
H          4.32713        1.19877       -1.09668
H          5.16339        0.80396       -2.62777
H          3.80565        1.96186       -2.60861
C          2.96264       -0.26119       -3.91025
H          2.12888       -0.94330       -4.12009
H          2.72142        0.71149       -4.36301
H          3.87071       -0.64988       -4.39562
B         -0.44688        1.57338       -0.68798
O         -0.40164        2.82573       -0.10679
C         -0.42338        3.80889       -1.14257
C         -1.15072        5.04109       -0.63824
H         -2.14376        4.78675       -0.24488
H         -0.57174        5.50000        0.17654
H         -1.26581        5.78802       -1.43877
C          1.03156        4.13395       -1.46775
H          1.12154        4.93777       -2.21342
H          1.53154        4.45014       -0.54132
H          1.55273        3.23666       -1.83217
C         -1.14888        3.04763       -2.30313
O         -0.79114        1.68784       -2.02802
C         -0.66653        3.40591       -3.69687
H          0.39864        3.17186       -3.82022
H         -1.23118        2.82941       -4.44495
H         -0.82267        4.47544       -3.90509
C         -2.66803        3.14581       -2.22410
H         -3.03442        2.90100       -1.21740
H         -3.02721        4.14888       -2.49713
H         -3.10648        2.41926       -2.92393
B          1.46940        0.58457        1.33805
O          1.89530       -0.03159        2.51473
C          2.59593        0.94395        3.28860
C          1.57505        1.63036        4.19244
H          0.80861        2.15189        3.60041
H          1.06959        0.86763        4.80285
H          2.04747        2.35603        4.87020
C          3.65078        0.24349        4.12432
H          3.16202       -0.40119        4.86974
H          4.27621        0.97158        4.66302
H          4.29628       -0.38961        3.50256
C          3.15231        1.89874        2.17814
O          2.17700        1.75971        1.14092
C          3.23143        3.36246        2.57281
H          3.90539        3.50529        3.43148
H          3.62344        3.94834        1.72857
H          2.24130        3.76186        2.82554
C          4.49372        1.42820        1.63007
H          4.43471        0.37769        1.31108
H          4.75640        2.04396        0.75844
H          5.29737        1.53268        2.37300
H          0.36724       -5.79352        2.66025
H         -0.99543       -4.28761       -4.00656
C         -2.28715       -0.08988        0.61902
C         -3.18065       -1.13768        0.46269
C         -2.92529        1.12810        0.96980
O         -2.90202       -2.46527        0.19107
C         -4.56429       -1.02771        0.61533
C         -4.30342        1.24521        1.11219
H         -2.32170        2.02542        1.11465
C         -4.13454       -3.05174       -0.13153
O         -5.15043       -2.24481        0.42391
C         -5.17959        0.16353        0.93924
Cl        -4.97929        2.81208        1.47798
H         -4.19134       -4.06527        0.29464
H         -4.25773       -3.09230       -1.23615
H         -6.25862        0.25969        1.05024
