104
Int2_comp169_6_Sub13.log	Energy: -1730072.0504097
N         -0.76835       -2.02236        1.13055
C         -1.29894       -2.89278        0.25695
C         -1.88034       -4.09079        0.68652
C         -1.91422       -4.37627        2.04491
C         -1.36569       -3.46030        2.93823
C         -0.79931       -2.29442        2.43536
H         -0.32546       -1.55312        3.07933
H         -1.37297       -3.63936        4.01445
H         -2.31616       -4.78724       -0.02900
C         -1.26455       -2.48515       -1.16010
N         -0.81922       -1.23582       -1.41438
C         -0.81582       -0.77236       -2.67193
C         -1.24532       -1.54585       -3.74278
C         -1.68618       -2.84435       -3.50331
C         -1.69763       -3.31571       -2.19801
H         -2.03834       -4.32770       -1.98410
H         -1.22894       -1.12330       -4.74831
H         -0.46817        0.25667       -2.79251
Ir        -0.07561       -0.06392        0.23783
H          0.28521        0.88829        1.46609
B          1.71437       -0.77922       -0.66916
O          2.36560       -1.97824       -0.45121
C          3.08031       -2.34038       -1.64090
C          4.38632       -3.00784       -1.25262
H          4.98520       -2.36819       -0.59279
H          4.98388       -3.24980       -2.14471
H          4.17548       -3.94517       -0.71729
C          2.19622       -3.32461       -2.39947
H          2.69577       -3.72173       -3.29499
H          1.95396       -4.16504       -1.73298
H          1.25209       -2.85389       -2.70745
C          3.23636       -0.96324       -2.37731
O          2.12744       -0.21879       -1.86218
C          4.50101       -0.20976       -1.98774
H          4.57248       -0.11588       -0.89693
H          5.40797       -0.69925       -2.37117
H          4.45026        0.80630       -2.40345
C          3.11274       -1.03295       -3.88902
H          2.13581       -1.42827       -4.19628
H          3.21579       -0.02256       -4.31098
H          3.90267       -1.66528       -4.32211
B          0.32201        1.69274       -0.70657
O          1.11383        2.71969       -0.25259
C          1.25396        3.68642       -1.29288
C          1.34859        5.06691       -0.67113
H          0.51193        5.25028        0.01494
H          2.28123        5.14472       -0.09341
H          1.35713        5.85081       -1.44418
C          2.53412        3.34621       -2.04933
H          2.76684        4.08840       -2.82739
H          3.36409        3.31635       -1.32870
H          2.45351        2.34874       -2.50435
C         -0.03388        3.43647       -2.14527
O         -0.25681        2.03746       -1.92624
C          0.12206        3.68657       -3.63315
H          0.89730        3.04252       -4.06853
H         -0.82798        3.47502       -4.14640
H          0.38621        4.73704       -3.82904
C         -1.25326        4.17353       -1.60246
H         -1.35784        4.01586       -0.51930
H         -1.20093        5.25438       -1.79947
H         -2.15436        3.77319       -2.08936
B          1.63859        0.00455        1.40784
O          1.68743       -0.76622        2.56957
C          2.66983       -0.18751        3.43298
C          1.95622        0.83386        4.31454
H          1.50220        1.63325        3.71084
H          1.14654        0.32886        4.86162
H          2.63570        1.28899        5.04954
C          3.28191       -1.28312        4.28534
H          2.52103       -1.68678        4.96973
H          4.11153       -0.89232        4.89396
H          3.65308       -2.10995        3.66677
C          3.64564        0.47943        2.40569
O          2.77184        0.79159        1.31585
C          4.29595        1.76475        2.88328
H          4.90931        1.58839        3.78032
H          4.94994        2.15964        2.09227
H          3.54417        2.53141        3.10853
C          4.70324       -0.49393        1.89962
H          4.23469       -1.41265        1.51939
H          5.25885       -0.02114        1.07729
H          5.42493       -0.75538        2.68679
H         -2.36984       -5.30267        2.40121
H         -2.02144       -3.48396       -4.32250
C         -2.06318        0.66928        0.57970
C         -3.18053        0.01573        0.02842
C         -2.43554        1.77956        1.35634
C         -4.50417        0.41464        0.21558
H         -3.02485       -0.86406       -0.59594
N         -3.67116        2.20498        1.56342
Cl        -1.23029        2.76605        2.16982
C         -4.65302        1.54811        1.01486
C         -5.70413       -0.31346       -0.34434
F         -5.88530        2.01210        1.25071
H         -6.40428        0.46110       -0.70303
C         -5.36396       -1.21949       -1.52143
H         -6.28292       -1.63812       -1.95885
H         -4.82487       -0.67644       -2.31259
H         -4.73549       -2.06968       -1.20936
C         -6.41726       -1.09455        0.76265
H         -6.71145       -0.43007        1.58746
H         -7.32563       -1.58519        0.37818
H         -5.75380       -1.87337        1.17250
