98
Int2_comp51_2_Sub15.log	Energy: -1844415.1663017
N          0.06243       -2.21487        1.31973
C         -0.19087       -3.26804        0.52714
C         -0.24969       -4.56662        1.04374
C         -0.04669       -4.76266        2.40328
C          0.21676       -3.65958        3.21077
C          0.26562       -2.40020        2.62367
H          0.50214       -1.50053        3.19358
H          0.38534       -3.76586        4.28350
H         -0.45913       -5.41639        0.39498
C         -0.40261       -2.96171       -0.90030
N         -0.36735       -1.65833       -1.24854
C         -0.55685       -1.29813       -2.52520
C         -0.78314       -2.23452       -3.52523
C         -0.81980       -3.58444       -3.18784
C         -0.63003       -3.94952       -1.86255
H         -0.65549       -4.99952       -1.57511
H         -0.93260       -1.89662       -4.55156
H         -0.52968       -0.22203       -2.71861
Ir        -0.04403       -0.20223        0.30366
H         -0.05367        0.83886        1.51420
B          1.88791       -0.32058       -0.60346
O          2.89275       -1.23184       -0.34231
C          3.64279       -1.45065       -1.54456
C          5.10787       -1.62238       -1.18768
H          5.48722       -0.76558       -0.61692
H          5.72239       -1.74044       -2.09304
H          5.23195       -2.52321       -0.56911
C          3.10568       -2.73507       -2.16732
H          3.67330       -3.02708       -3.06269
H          3.18209       -3.54368       -1.42596
H          2.04768       -2.63091       -2.44524
C          3.31442       -0.16895       -2.39451
O          2.06669        0.25659       -1.84111
C          4.30741        0.96700       -2.18940
H          4.44261        1.17803       -1.12195
H          5.28650        0.74570       -2.63863
H          3.90362        1.87495       -2.65999
C          3.12065       -0.42375       -3.87952
H          2.30181       -1.13083       -4.06466
H          2.86686        0.52223       -4.37945
H          4.04021       -0.81835       -4.33785
B         -0.40843        1.53315       -0.68385
O         -0.49632        2.77409       -0.08573
C         -0.61921        3.75969       -1.11259
C         -1.47427        4.90340       -0.60174
H         -2.43438        4.53941       -0.21359
H         -0.95024        5.41708        0.21763
H         -1.66821        5.63863       -1.39793
C          0.79247        4.24022       -1.43589
H          0.79492        5.06070       -2.16884
H          1.26093        4.59376       -0.50630
H          1.40399        3.40950       -1.81798
C         -1.25731        2.93449       -2.27807
O         -0.71230        1.63158       -2.03537
C         -0.85913        3.38381       -3.67099
H          0.22558        3.30574       -3.81980
H         -1.35318        2.74884       -4.42164
H         -1.16865        4.42466       -3.85153
C         -2.77339        2.81788       -2.16157
H         -3.06909        2.49655       -1.15233
H         -3.27864        3.76546       -2.39934
H         -3.12393        2.05110       -2.86783
B          1.57406        0.60939        1.33264
O          2.00522        0.03309        2.52833
C          2.67986        1.04418        3.28050
C          1.63869        1.72999        4.16124
H          0.86538        2.22021        3.55159
H          1.14577        0.97166        4.78716
H          2.09111        2.48217        4.82361
C          3.74675        0.39021        4.13818
H          3.27025       -0.24507        4.89946
H          4.35361        1.14660        4.65886
H          4.40873       -0.24430        3.53548
C          3.21994        1.98284        2.14863
O          2.24990        1.79936        1.11337
C          3.26966        3.45668        2.50847
H          3.93982        3.63310        3.36388
H          3.65065        4.02989        1.65065
H          2.27157        3.84231        2.75126
C          4.57079        1.52516        1.61237
H          4.53284        0.46565        1.32100
H          4.81918        2.12262        0.72387
H          5.37275        1.66607        2.35114
H         -0.09406       -5.76821        2.82687
H         -0.99624       -4.34824       -3.94829
C         -2.14116       -0.12175        0.52628
S         -3.21018       -1.28870       -0.21077
C         -2.91271        0.84312        1.13473
C         -4.67152       -0.44703        0.24101
C         -4.31690        0.66501        0.96684
H         -2.49093        1.70857        1.64697
N         -5.94374       -0.90892       -0.06570
Cl        -5.48325        1.79563        1.57123
H         -5.94415       -1.53793       -0.85999
C         -6.77103       -1.38221        1.02432
H         -7.76258       -1.65928        0.63602
H         -6.91531       -0.57273        1.75407
H         -6.34498       -2.25423        1.56025
