108
Int2_comp34_7_Sub29.log	Energy: -1487675.0673189
N         -0.52686       -2.16420        0.68070
C         -0.88090       -2.91244       -0.37637
C         -1.35655       -4.21833       -0.21442
C         -1.47230       -4.74160        1.06610
C         -1.10786       -3.94985        2.15196
C         -0.63549       -2.66504        1.91130
H         -0.30018       -2.00977        2.71560
H         -1.18310       -4.31780        3.17635
H         -1.64211       -4.81904       -1.07721
C         -0.75477       -2.26266       -1.69451
N         -0.33606       -0.97883       -1.69486
C         -0.21626       -0.31580       -2.85335
C         -0.50702       -0.91024       -4.07435
C         -0.93487       -2.23497       -4.09553
C         -1.06014       -2.91527       -2.89289
H         -1.39311       -3.95202       -2.88297
H         -0.39749       -0.32982       -4.99147
H          0.12501        0.72010       -2.76830
Ir         0.12992       -0.06749        0.19584
H          0.23840        0.64215        1.62268
B          2.06565       -0.63908       -0.53054
O          2.66063       -1.88308       -0.44018
C          3.52352       -2.07242       -1.56889
C          4.76671       -2.81741       -1.11742
H          5.27379       -2.29601       -0.29596
H          5.47803       -2.93799       -1.94851
H          4.48435       -3.81835       -0.75976
C          2.75061       -2.91737       -2.57571
H          3.36445       -3.18022       -3.44939
H          2.42921       -3.84610       -2.08222
H          1.85158       -2.39378       -2.92813
C          3.77675       -0.60034       -2.06375
O          2.65048        0.10246       -1.53449
C          5.02562        0.03506       -1.46788
H          5.02445       -0.05415       -0.37518
H          5.94708       -0.41593       -1.86400
H          5.02759        1.10650       -1.71471
C          3.78219       -0.42939       -3.57350
H          2.82824       -0.74035       -4.01843
H          3.93535        0.63198       -3.81716
H          4.59546       -1.00866       -4.03652
B          0.54381        1.83549       -0.37363
O          0.82929        2.87823        0.48966
C          1.31583        3.97653       -0.28196
C          0.93361        5.27492        0.40215
H         -0.14496        5.31902        0.60126
H          1.45939        5.35095        1.36523
H          1.21694        6.14373       -0.21189
C          2.83346        3.83005       -0.35229
H          3.30895        4.67646       -0.86998
H          3.22458        3.77402        0.67338
H          3.10495        2.89192       -0.85822
C          0.62334        3.73150       -1.66241
O          0.52641        2.30360       -1.68316
C          1.42401        4.18794       -2.86762
H          2.38445        3.66006       -2.92785
H          0.86117        3.97818       -3.78960
H          1.61526        5.27128       -2.82647
C         -0.79721        4.28217       -1.71941
H         -1.38068        3.95114       -0.84798
H         -0.81162        5.38107       -1.76715
H         -1.29320        3.88951       -2.61915
B          1.71971       -0.09289        1.54023
O          1.73760       -1.03006        2.57664
C          2.53868       -0.49824        3.63251
C          1.61457        0.29028        4.55720
H          1.14726        1.13224        4.02558
H          0.81188       -0.37384        4.91016
H          2.14758        0.68282        5.43532
C          3.18311       -1.64575        4.38756
H          2.40638       -2.23220        4.90045
H          3.88569       -1.27365        5.14884
H          3.71916       -2.31917        3.70695
C          3.53306        0.42463        2.84968
O          2.75734        0.81196        1.71320
C          3.96296        1.67739        3.59175
H          4.48693        1.42436        4.52635
H          4.65069        2.25894        2.96043
H          3.10292        2.31706        3.82634
C          4.75500       -0.33538        2.34858
H          4.45029       -1.22997        1.78665
H          5.32831        0.31989        1.67778
H          5.41534       -0.63789        3.17398
H         -1.84594       -5.75721        1.21352
H         -1.17028       -2.73455       -5.03764
C         -1.90003        0.59907        0.29457
C         -2.94902       -0.11139       -0.33391
C         -2.24877        1.75767        1.01492
C         -4.24321        0.35455       -0.21362
H         -2.78274       -1.02200       -0.91342
C         -3.56873        2.22900        1.13588
H         -1.45926        2.33553        1.50096
C         -4.55523        1.50085        0.50471
O         -5.39045       -0.15995       -0.75179
H         -3.80521        3.13199        1.70216
O         -5.90050        1.72965        0.43026
C         -6.46181        0.57217       -0.17182
H         -7.14371        0.89428       -0.98078
C         -7.20368       -0.27292        0.85773
H         -6.44802       -0.54288        1.61783
C         -8.30320        0.54432        1.52091
H         -8.80738       -0.04130        2.30432
H         -7.89635        1.45755        1.97704
H         -9.06931        0.84337        0.78557
C         -7.73555       -1.54571        0.21423
H         -6.92488       -2.11870       -0.25724
H         -8.22619       -2.18651        0.96231
H         -8.48310       -1.31116       -0.56248
