106
Int2_comp4_2_Sub16.log	Energy: -1772842.8434827
N         -0.15902       -2.25714        0.80553
C         -0.20723       -3.10775       -0.23157
C         -0.25652       -4.49019       -0.03254
C         -0.29428       -4.98605        1.26419
C         -0.28935       -4.08892        2.32782
C         -0.21255       -2.72880        2.04943
H         -0.16912       -1.98273        2.84197
H         -0.33524       -4.43041        3.36301
H         -0.27596       -5.17491       -0.87957
C         -0.27681       -2.48694       -1.56675
N         -0.23794       -1.13804       -1.60623
C         -0.37494       -0.50105       -2.77533
C         -0.56068       -1.18601       -3.96999
C         -0.59465       -2.57653       -3.95085
C         -0.44908       -3.23072       -2.73530
H         -0.48291       -4.31821       -2.69232
H         -0.67870       -0.62298       -4.89679
H         -0.32596        0.59040       -2.72581
Ir         0.13053       -0.09349        0.24092
H          0.25556        0.68434        1.63257
B          2.07768       -0.38062       -0.59418
O          2.85830       -1.51901       -0.54148
C          3.73360       -1.54500       -1.67803
C          5.08701       -2.07735       -1.24304
H          5.50981       -1.48635       -0.42145
H          5.79973       -2.07216       -2.08159
H          4.97691       -3.11437       -0.89360
C          3.10987       -2.49247       -2.69523
H          3.75996       -2.63955       -3.56980
H          2.94504       -3.46768       -2.21436
H          2.13823       -2.11957       -3.04445
C          3.73401       -0.04431       -2.15328
O          2.51510        0.45623       -1.59872
C          4.87021        0.78026       -1.56391
H          4.87930        0.70030       -0.47058
H          5.84973        0.47292       -1.95790
H          4.71037        1.83783       -1.81722
C          3.68685        0.14491       -3.66015
H          2.78888       -0.31087       -4.09634
H          3.66196        1.22011       -3.88978
H          4.57601       -0.28759       -4.14345
B          0.31955        1.81924       -0.42837
O          0.69604        2.90114        0.34214
C          0.91865        4.01820       -0.51959
C          0.54390        5.29226        0.21325
H         -0.47872        5.24041        0.60865
H          1.22803        5.44125        1.06146
H          0.62476        6.16746       -0.44977
C          2.40376        4.01435       -0.86836
H          2.69099        4.88524       -1.47615
H          2.97937        4.02842        0.06822
H          2.66499        3.08991       -1.40257
C          0.00797        3.67302       -1.74557
O          0.01021        2.24111       -1.71511
C          0.54627        4.13473       -3.08739
H          1.51661        3.67097       -3.30681
H         -0.15571        3.85219       -3.88624
H          0.66232        5.22915       -3.10983
C         -1.43547        4.12921       -1.56455
H         -1.83680        3.81075       -0.59187
H         -1.53215        5.22171       -1.64915
H         -2.05319        3.66465       -2.34702
B          1.75616        0.06128        1.52787
O          1.88883       -0.85853        2.56751
C          2.69171       -0.25617        3.58326
C          1.75060        0.47313        4.53889
H          1.20096        1.27284        4.02095
H          1.01409       -0.24411        4.92996
H          2.28873        0.91344        5.39082
C          3.44797       -1.34505        4.32105
H          2.73648       -1.97897        4.87069
H          4.15229       -0.91456        5.04912
H          4.00252       -1.98678        3.62493
C          3.58120        0.72703        2.74939
O          2.73008        1.04145        1.64251
C          3.94626        2.01876        3.45799
H          4.52811        1.81861        4.37091
H          4.55947        2.64161        2.79045
H          3.05143        2.59531        3.72373
C          4.83406        0.04953        2.20914
H          4.57224       -0.86532        1.65892
H          5.34429        0.73757        1.52058
H          5.53838       -0.20401        3.01433
H         -0.33673       -6.06315        1.44018
H         -0.73704       -3.14804       -4.87047
C         -1.95162        0.43812        0.53292
C         -3.12234       -0.22126        0.15687
C         -2.18284        1.67389        1.21471
Cl        -3.11456       -1.77273       -0.66339
C         -4.39701        0.31478        0.41165
N         -3.35275        2.24662        1.47696
H         -1.31341        2.24485        1.55392
C         -4.41244        1.57067        1.06692
C         -5.77607       -0.01956        0.17000
N         -5.71671        1.96478        1.20430
C         -6.55131        1.00895        0.66718
O         -6.28584       -1.11258       -0.45306
H         -5.99818        2.83670        1.62876
C         -8.02782        1.14435        0.63992
H         -8.45397        0.28042        0.11335
H         -8.34558        2.05743        0.10909
H         -8.46088        1.18228        1.65366
C         -6.35473       -2.26782        0.34732
H         -5.35215       -2.59891        0.66676
H         -6.97822       -2.09907        1.24443
H         -6.81120       -3.06004       -0.26301
