110
Int2_comp39_1_Sub19.log	Energy: -1428802.6832917
N         -0.42264        2.36247        1.09537
C         -0.55855        3.38289        0.23361
C         -0.60928        4.70859        0.67827
C         -0.51184        4.96835        2.03871
C         -0.37211        3.89865        2.91927
C         -0.33506        2.60855        2.40255
H         -0.26203        1.72715        3.04097
H         -0.29329        4.05449        3.99632
H         -0.71490        5.53140       -0.02820
C         -0.64239        3.01030       -1.19037
N         -0.49865        1.69777       -1.47897
C         -0.56301        1.28044       -2.75334
C         -0.77899        2.16166       -3.80468
C         -0.93481        3.51796       -3.52763
C         -0.86355        3.94368       -2.20880
H         -0.98589        4.99847       -1.96684
H         -0.82255        1.77723       -4.82467
H         -0.42202        0.20570       -2.90137
Ir        -0.19918        0.32619        0.15074
H          0.26256       -0.61352        1.35659
B         -2.26585        0.00757       -0.30483
O         -3.36972        0.71522        0.13439
C         -4.38051        0.67688       -0.88111
C         -5.74355        0.58287       -0.22055
H         -5.80659       -0.28141        0.45226
H         -6.54122        0.49975       -0.97435
H         -5.92707        1.48963        0.37415
C         -4.26786        1.98469       -1.65800
H         -5.05447        2.08112       -2.42036
H         -4.36133        2.82194       -0.95123
H         -3.29061        2.06890       -2.15367
C         -3.96874       -0.58052       -1.72871
O         -2.56919       -0.68751       -1.45772
C         -4.61662       -1.87325       -1.25120
H         -4.45911       -2.01046       -0.17453
H         -5.69512       -1.89944       -1.46473
H         -4.13718       -2.71763       -1.76694
C         -4.16074       -0.42694       -3.22760
H         -3.57850        0.41442       -3.62518
H         -3.81854       -1.34153       -3.73331
H         -5.22144       -0.27298       -3.47797
B          0.27669       -1.37850       -0.83793
O          0.63491       -2.57325       -0.24955
C          0.75789       -3.55948       -1.27415
C          1.84156       -4.54609       -0.88383
H          2.77786       -4.02776       -0.64002
H          1.52374       -5.10862        0.00637
H          2.03257       -5.26639       -1.69436
C         -0.59582       -4.25536       -1.38469
H         -0.57763       -5.09213       -2.09890
H         -0.86952       -4.64162       -0.39241
H         -1.37246       -3.53663       -1.68550
C          1.08869       -2.68434       -2.52711
O          0.37959       -1.47744       -2.22253
C          0.58186       -3.23822       -3.84495
H         -0.51074       -3.34442       -3.83964
H          0.85511       -2.55640       -4.66433
H          1.03235       -4.21991       -4.05761
C          2.56727       -2.32222       -2.62334
H          2.93091       -1.90308       -1.67281
H          3.18667       -3.18750       -2.90231
H          2.69090       -1.54534       -3.39205
B         -1.38477       -0.65072        1.55760
O         -1.62892       -0.05088        2.79521
C         -1.92902       -1.08909        3.73008
C         -0.61185       -1.53081        4.36293
H          0.07183       -1.94291        3.60611
H         -0.12436       -0.65658        4.81901
H         -0.76458       -2.28743        5.14620
C         -2.86524       -0.54105        4.79063
H         -2.34140        0.22018        5.38766
H         -3.19881       -1.33743        5.47336
H         -3.74578       -0.06769        4.33820
C         -2.54585       -2.18919        2.80201
O         -1.87672       -1.94792        1.56110
C         -2.26841       -3.61852        3.23089
H         -2.69014       -3.82208        4.22727
H         -2.73215       -4.31189        2.51411
H         -1.19154       -3.82792        3.24885
C         -4.03956       -1.98486        2.57936
H         -4.24258       -0.96068        2.23503
H         -4.38222       -2.68688        1.80599
H         -4.61904       -2.17962        3.49323
H         -0.54375        5.99624        2.40630
H         -1.11040        4.23826       -4.32951
C          1.87647        0.58296       -0.11077
N          2.45707        1.39417       -1.05858
C          2.94134       -0.06935        0.50356
C          3.82382        1.27263       -1.06586
H          1.94155        1.96501       -1.71043
C          4.16815        0.35904       -0.08792
H          2.83754       -0.81706        1.28934
H          4.43932        1.84169       -1.75934
C          5.54447       -0.09083        0.30372
H          5.53233       -1.19827        0.34957
C          5.93154        0.40550        1.70407
H          5.16663        0.08998        2.43128
H          5.91011        1.51056        1.69556
C          7.31276       -0.08299        2.12554
H          7.57369        0.31484        3.12035
H          7.29162       -1.18356        2.22830
C          8.37712        0.30109        1.10310
H          9.36166       -0.09675        1.40033
H          8.47894        1.40182        1.08527
C          8.00343       -0.18594       -0.29312
H          8.01216       -1.29127       -0.30456
H          8.76024        0.13606       -1.02761
C          6.62079        0.30615       -0.70609
H          6.63948        1.40863       -0.78873
H          6.35290       -0.07700       -1.70424
