106
Int2_comp39_1_Sub20.log	Energy: -1380253.4532407
N         -0.46443        2.26340        1.31258
C         -0.59900        3.34198        0.52464
C         -0.86630        4.60606        1.06178
C         -0.98727        4.74258        2.43825
C         -0.84338        3.61422        3.24141
C         -0.58519        2.39059        2.63397
H         -0.49793        1.46454        3.20364
H         -0.93138        3.67336        4.32735
H         -0.97350        5.47680        0.41559
C         -0.43919        3.10167       -0.92188
N         -0.12943        1.83927       -1.29112
C          0.03352        1.54044       -2.58887
C         -0.11001        2.49678       -3.58561
C         -0.42972        3.80400       -3.22637
C         -0.59270        4.10771       -1.88206
H         -0.84547        5.12216       -1.57683
H          0.03173        2.20856       -4.62814
H          0.29229        0.49819       -2.80030
Ir         0.06783        0.34542        0.24733
H          0.45278       -0.66260        1.42267
B         -1.89953       -0.05066       -0.49771
O         -3.08308        0.57361       -0.14891
C         -3.96360        0.56765       -1.27967
C         -5.38642        0.35454       -0.79618
H         -5.47609       -0.56182       -0.19953
H         -6.08551        0.29126       -1.64388
H         -5.69009        1.20150       -0.16371
C         -3.83881        1.93723       -1.93907
H         -4.53813        2.05531       -2.77945
H         -4.06038        2.70995       -1.18860
H         -2.81865        2.10856       -2.30961
C         -3.38334       -0.59660       -2.16257
O         -2.02464       -0.66700       -1.72475
C         -4.01811       -1.95054       -1.87501
H         -3.99416       -2.17015       -0.80093
H         -5.05745       -2.00402       -2.23048
H         -3.43282       -2.72816       -2.38647
C         -3.39481       -0.32717       -3.65754
H         -2.81221        0.56789       -3.91116
H         -2.94385       -1.18125       -4.18332
H         -4.42247       -0.19844       -4.03010
B          0.78068       -1.23347       -0.80688
O          1.19611       -2.43076       -0.26031
C          1.46865       -3.34151       -1.32488
C          2.60131       -4.26138       -0.91040
H          3.47500       -3.68707       -0.57566
H          2.27209       -4.89613       -0.07462
H          2.90361       -4.91796       -1.74091
C          0.18752       -4.13426       -1.56835
H          0.32173       -4.92085       -2.32585
H         -0.11692       -4.60176       -0.62107
H         -0.62580       -3.46261       -1.88060
C          1.81021       -2.37130       -2.50337
O          0.99836       -1.23618       -2.18085
C          1.42519       -2.87924       -3.87985
H          0.34426       -3.05659       -3.95117
H          1.69986       -2.13389       -4.64138
H          1.95502       -3.81491       -4.11586
C          3.26144       -1.90390       -2.48414
H          3.53238       -1.51644       -1.49092
H          3.95837       -2.70733       -2.76497
H          3.37637       -1.07896       -3.20267
B         -1.20095       -0.84525        1.39180
O         -1.64865       -0.39339        2.63568
C         -1.96129       -1.54114        3.42746
C         -0.69400       -1.93691        4.18104
H          0.11034       -2.21445        3.48391
H         -0.34698       -1.07654        4.77198
H         -0.86876       -2.77814        4.86739
C         -3.06412       -1.17999        4.40466
H         -2.68810       -0.44290        5.12965
H         -3.40141       -2.06540        4.96490
H         -3.92456       -0.73629        3.88803
C         -2.35865       -2.58861        2.33318
O         -1.57382       -2.16953        1.21373
C         -2.00081       -4.02648        2.66305
H         -2.51542       -4.36367        3.57604
H         -2.31008       -4.67976        1.83405
H         -0.91858       -4.14719        2.79748
C         -3.82815       -2.48713        1.94243
H         -4.08649       -1.45301        1.67262
H         -4.00773       -3.13060        1.06958
H         -4.49064       -2.82305        2.75309
H         -1.19166        5.72105        2.87818
H         -0.55158        4.58074       -3.98434
C          2.12721        0.78792        0.29630
N          2.71716        1.87960       -0.29785
C          3.18192        0.06081        0.83930
C          4.08155        1.86385       -0.14999
H          2.21617        2.59407       -0.80336
C          4.41423        0.73002        0.56626
H          3.06136       -0.88555        1.36502
H          4.70333        2.65559       -0.56198
C          5.79418        0.26484        0.97528
C          6.86449        1.24332        0.49109
H          7.86828        0.90121        0.78995
H          6.85152        1.33454       -0.60628
H          6.70809        2.24607        0.91854
C          5.86525        0.16118        2.50477
H          5.10686       -0.53815        2.88775
H          6.85652       -0.19531        2.83188
H          5.67831        1.14144        2.96964
C          6.06804       -1.11641        0.36360
H          7.05965       -1.49355        0.66532
H          5.31263       -1.84874        0.68737
H          6.03618       -1.06840       -0.73577
