111
Int2_comp152_10_Sub24.log	Energy: -1523006.5347836
N          0.19585        2.05459        1.35971
C          0.22127        3.18744        0.63943
C          0.41080        4.43130        1.25120
C          0.59314        4.48821        2.62595
C          0.58007        3.30293        3.35622
C          0.37225        2.10644        2.67996
H          0.31675        1.14985        3.19916
H          0.72559        3.29728        4.43746
H          0.43327        5.34526        0.65927
C          0.07732        3.02860       -0.81976
N          0.00428        1.76249       -1.28549
C         -0.08091        1.54255       -2.60430
C         -0.10708        2.58255       -3.52449
C         -0.04355        3.89398       -3.06287
C          0.05126        4.11622       -1.69685
H          0.11003        5.13257       -1.31128
H         -0.17077        2.35282       -4.58896
H         -0.11609        0.49242       -2.90497
Ir         0.01413        0.16372        0.15618
H          0.22171       -0.99170        1.23783
B         -2.06757        0.38343       -0.31143
O         -2.96903        1.28086        0.22457
C         -3.97049        1.57937       -0.75838
C         -5.31229        1.72915       -0.06543
H         -5.56686        0.83688        0.51982
H         -6.11453        1.90948       -0.79695
H         -5.27633        2.58690        0.62191
C         -3.56973        2.90047       -1.40521
H         -4.32457        3.25191       -2.12342
H         -3.45808        3.65877       -0.61674
H         -2.60765        2.81229       -1.92795
C         -3.86619        0.35607       -1.74018
O         -2.52878       -0.10235       -1.51732
C         -4.80080       -0.79098       -1.38094
H         -4.67500       -1.07952       -0.33043
H         -5.85495       -0.53490       -1.56097
H         -4.54422       -1.66383       -1.99781
C         -4.01579        0.70682       -3.21038
H         -3.24848        1.42130       -3.53513
H         -3.90438       -0.20480       -3.81537
H         -5.00860        1.13454       -3.41691
B         -0.01728       -1.44714       -1.08701
O         -0.22064       -2.75866       -0.71015
C         -0.36048       -3.55927       -1.88381
C          0.21784       -4.93537       -1.61304
H          1.24654       -4.86663       -1.23582
H         -0.39005       -5.44453       -0.85075
H          0.21294       -5.55341       -2.52407
C         -1.85395       -3.64811       -2.18111
H         -2.07036       -4.31006       -3.03278
H         -2.36206       -4.03975       -1.28822
H         -2.26125       -2.64659       -2.38086
C          0.41927       -2.71677       -2.94700
O          0.23214       -1.38446       -2.45366
C         -0.13187       -2.80204       -4.35795
H         -1.16937       -2.44628       -4.40360
H          0.47439       -2.17787       -5.03137
H         -0.09611       -3.83677       -4.73172
C          1.91875       -2.99239       -2.94012
H          2.32522       -2.94646       -1.91935
H          2.15683       -3.97460       -3.37425
H          2.42324       -2.21718       -3.53484
B         -1.37867       -0.67227        1.46391
O         -1.48987       -0.15140        2.75353
C         -2.03125       -1.17444        3.59149
C         -0.85737       -1.96026        4.17063
H         -0.26884       -2.44119        3.37534
H         -0.19332       -1.26683        4.70737
H         -1.18877       -2.73469        4.87735
C         -2.83001       -0.52566        4.70623
H         -2.15340        0.03987        5.36392
H         -3.34298       -1.28349        5.31779
H         -3.57500        0.17414        4.30724
C         -2.87224       -2.01405        2.57136
O         -2.15692       -1.81140        1.34901
C         -2.92489       -3.50369        2.85771
H         -3.38928       -3.70250        3.83585
H         -3.52620       -4.00385        2.08460
H         -1.92242       -3.94931        2.84086
C         -4.28052       -1.46137        2.39034
H         -4.24760       -0.38892        2.15101
H         -4.76499       -1.99021        1.55737
H         -4.89582       -1.61041        3.28920
H          0.75072        5.44917        3.12047
H         -0.06186        4.73630       -3.75755
C          2.15566        0.13980        0.03352
C          2.83144        1.28272       -0.35914
C          3.01037       -0.96942        0.37141
C          4.24226        1.35486       -0.39495
H          2.31252        2.19967       -0.64012
C          2.53736       -2.24100        0.79495
C          4.43318       -0.81075        0.28013
N          5.02813        0.35226       -0.08758
C          4.90735        2.64293       -0.82889
C          3.39243       -3.27665        1.08946
H          1.46297       -2.40964        0.85271
C          5.28812       -1.89914        0.59564
H          5.92502        2.66474       -0.39412
O          4.17905        3.79888       -0.51116
H          5.01716        2.64378       -1.92631
C          4.79940       -3.12399        0.99332
H          2.97870       -4.24045        1.40164
H          6.36171       -1.71584        0.50684
C          5.70663       -4.27307        1.32024
H          5.50002       -5.13994        0.67145
H          5.56236       -4.61090        2.35956
H          6.76386       -4.00044        1.19562
C          4.13803        4.06872        0.85791
H          3.61503        3.27780        1.42879
H          5.15486        4.18120        1.28312
H          3.59438        5.01451        0.99717
