112
Int2_comp165_4_Sub11.log	Energy: -3119625.2576857
N         -1.02851        2.03053        1.60203
C         -1.76063        3.03993        1.10554
C         -2.19511        4.08816        1.92312
C         -1.83784        4.09377        3.26478
C         -1.04881        3.05747        3.75531
C         -0.66958        2.04196        2.88525
H         -0.07811        1.18989        3.21835
H         -0.73044        3.02656        4.79838
H         -2.79278        4.90205        1.51463
C         -2.01871        2.99681       -0.34506
N         -1.44162        1.98601       -1.02805
C         -1.56131        1.93055       -2.35970
C         -2.28012        2.87899       -3.07691
C         -2.90215        3.91494       -2.38784
C         -2.76619        3.97245       -1.00748
H         -3.23822        4.77660       -0.44509
H         -2.34287        2.79419       -4.16268
H         -1.04946        1.09561       -2.84402
Ir        -0.47048        0.42704        0.11811
H          0.35524       -0.67626        0.92233
B         -2.42772       -0.31694       -0.24414
O         -3.57907       -0.09555        0.48813
C         -4.71720       -0.26301       -0.36979
C         -5.84210       -0.91230        0.41463
H         -5.52937       -1.86521        0.85799
H         -6.71423       -1.09529       -0.23140
H         -6.15481       -0.24375        1.23010
C         -5.13661        1.13099       -0.82089
H         -6.05884        1.10897       -1.41946
H         -5.31285        1.75125        0.06990
H         -4.34730        1.60997       -1.41545
C         -4.13822       -1.13623       -1.53865
O         -2.74413       -0.81632       -1.49250
C         -4.26232       -2.63417       -1.29330
H         -3.82608       -2.90232       -0.32291
H         -5.30772       -2.97329       -1.33046
H         -3.69440       -3.16811       -2.06759
C         -4.67028       -0.78579       -2.91708
H         -4.44518        0.25501       -3.18340
H         -4.19711       -1.43610       -3.66730
H         -5.75887       -0.93872       -2.97196
B          0.06378       -0.83161       -1.39221
O          0.31531       -2.18044       -1.32140
C          0.53448       -2.68335       -2.63855
C          1.58203       -3.77961       -2.57609
H          2.48987       -3.43185       -2.06688
H          1.18392       -4.63342       -2.00848
H          1.84882       -4.13185       -3.58456
C         -0.79603       -3.24089       -3.13307
H         -0.70541       -3.71673       -4.12083
H         -1.14632       -3.99203       -2.41041
H         -1.55047       -2.44294       -3.17570
C          0.97668       -1.39744       -3.41541
O          0.29835       -0.36931       -2.68565
C          0.54117       -1.34404       -4.86789
H         -0.55189       -1.38719       -4.96063
H          0.88696       -0.40400       -5.32327
H          0.97602       -2.17817       -5.43957
C          2.47122       -1.11696       -3.29856
H          2.79982       -1.17614       -2.25129
H          3.06875       -1.81836       -3.89935
H          2.66761       -0.09442       -3.65203
B         -1.10554       -1.06333        1.41035
O         -1.24026       -0.76094        2.76293
C         -1.21807       -1.98903        3.49341
C          0.23212       -2.26295        3.88136
H          0.86851       -2.36890        2.99091
H          0.61286       -1.41006        4.46233
H          0.32932       -3.16933        4.49633
C         -2.07307       -1.83382        4.73736
H         -1.61049       -1.09778        5.41146
H         -2.15659       -2.78699        5.28134
H         -3.08006       -1.47660        4.48788
C         -1.76344       -3.00589        2.43262
O         -1.35797       -2.40617        1.19741
C         -1.16042       -4.39645        2.51036
H         -1.37300       -4.86623        3.48301
H         -1.59471       -5.02756        1.72148
H         -0.07452       -4.36954        2.35591
C         -3.28447       -3.08709        2.44367
H         -3.72566       -2.08530        2.34797
H         -3.61707       -3.69612        1.59114
H         -3.65880       -3.56126        3.36227
H         -2.16413        4.90656        3.91731
H         -3.48396        4.67297       -2.91649
C          1.53408        1.28416       -0.06200
C          1.72287        2.62116       -0.42757
C          2.75906        0.60256        0.10313
C          2.94469        3.22538       -0.67913
F          0.65557        3.43999       -0.55542
Br         2.75042       -1.21394        0.74908
C          4.04139        1.13374       -0.15266
C          4.10005        2.47001       -0.55584
H          2.96986        4.27722       -0.97027
C          5.31846        0.34273        0.02647
H          5.06642        2.93065       -0.76531
H          5.08064       -0.71116       -0.19627
C          5.81022        0.39078        1.48001
H          4.99506        0.08533        2.15390
H          6.05424        1.43913        1.73152
C          7.03292       -0.49549        1.68610
H          7.38974       -0.41802        2.72636
H          6.73618       -1.54968        1.53797
C          8.15315       -0.14699        0.71199
H          9.00444       -0.83569        0.83999
H          8.53401        0.86408        0.94627
C          7.66232       -0.16882       -0.73197
H          7.38657       -1.20284       -1.00770
H          8.47258        0.12905       -1.41748
C          6.45176        0.73960       -0.92135
H          6.76422        1.78086       -0.72653
H          6.09716        0.70759       -1.96456
