104
Int2_comp169_1_Sub13.log	Energy: -1730073.9489898
N         -0.73037       -2.19299       -0.47910
C         -1.09171       -2.37900       -1.75817
C         -1.78987       -3.52419       -2.15334
C         -2.09986       -4.48868       -1.20246
C         -1.69071       -4.29398        0.11356
C         -1.00363       -3.12669        0.43128
H         -0.62966       -2.91890        1.43668
H         -1.90064       -5.03030        0.89090
H         -2.10241       -3.65638       -3.18871
C         -0.69546       -1.31318       -2.69969
N         -0.15305       -0.20309       -2.15838
C          0.27170        0.79089       -2.94813
C          0.17143        0.71981       -4.33205
C         -0.39058       -0.41365       -4.91029
C         -0.82817       -1.44078       -4.08441
H         -1.25719       -2.34508       -4.51385
H          0.52819        1.55385       -4.93769
H          0.69133        1.65716       -2.42949
Ir        -0.03372       -0.08906       -0.01472
H         -0.22464        0.07430        1.56430
B          2.00935       -0.49846       -0.52281
O          2.58969       -1.74266       -0.67849
C          3.62081       -1.64617       -1.66985
C          4.76772       -2.56055       -1.28096
H          5.14192       -2.33303       -0.27486
H          5.60156       -2.47117       -1.99368
H          4.42300       -3.60488       -1.28600
C          3.00571       -2.11186       -2.98581
H          3.74502       -2.13937       -3.79927
H          2.60216       -3.12517       -2.84584
H          2.17649       -1.45790       -3.29085
C          3.96325       -0.11270       -1.65949
O          2.75751        0.46756       -1.15482
C          5.07804        0.25345       -0.68895
H          4.87826       -0.15795        0.30786
H          6.05930       -0.10380       -1.03372
H          5.11716        1.34845       -0.59715
C          4.25045        0.48434       -3.02624
H          3.39607        0.36801       -3.70541
H          4.44923        1.56042       -2.91772
H          5.13448        0.01637       -3.48548
B          0.42775        1.87334        0.25372
O          0.35872        2.54553        1.45953
C          1.03890        3.79395        1.31020
C          0.39227        4.82499        2.21524
H         -0.68959        4.88729        2.04181
H          0.55049        4.54192        3.26621
H          0.83523        5.82066        2.05875
C          2.49237        3.56355        1.71389
H          3.07863        4.49418        1.69155
H          2.51102        3.15647        2.73454
H          2.96400        2.81865        1.05685
C          0.87670        4.06807       -0.22152
O          0.84353        2.73710       -0.74785
C          2.03011        4.81679       -0.86269
H          2.96710        4.25248       -0.77194
H          1.82544        4.96680       -1.93334
H          2.16346        5.80711       -0.40083
C         -0.45095        4.73281       -0.56585
H         -1.28924        4.21214       -0.08267
H         -0.46737        5.79088       -0.26561
H         -0.60911        4.67418       -1.65206
B          1.25690       -0.61754        1.52674
O          1.11630       -1.85766        2.15632
C          1.69012       -1.75033        3.46141
C          0.58131       -1.30533        4.41165
H          0.19204       -0.31580        4.12976
H         -0.24815       -2.02558        4.35289
H          0.92541       -1.26181        5.45511
C          2.22934       -3.10591        3.87706
H          1.39580       -3.81186        4.00822
H          2.77009       -3.03904        4.83338
H          2.90335       -3.51700        3.11501
C          2.77557       -0.64235        3.24537
O          2.20324        0.14187        2.19464
C          3.01903        0.25608        4.44428
H          3.37175       -0.32608        5.30946
H          3.79033        0.99932        4.19490
H          2.10906        0.79993        4.72740
C          4.09349       -1.21346        2.73711
H          3.92476       -1.85144        1.85770
H          4.74806       -0.38068        2.44349
H          4.61155       -1.79804        3.51085
H         -2.65429       -5.38476       -1.48968
H         -0.48588       -0.50195       -5.99464
C         -2.10365        0.38472       -0.06947
C         -3.01072       -0.31335        0.73887
C         -2.73640        1.30832       -0.90393
C         -4.39842       -0.12243        0.70542
H         -2.61815       -1.05924        1.43471
F         -1.99657        2.05839       -1.73325
N         -4.02581        1.53901       -0.98419
C         -4.82832        0.84947       -0.20569
C         -5.35137       -0.87757        1.60398
Cl        -6.53700        1.20595       -0.35911
H         -6.27888       -1.01896        1.02428
C         -4.83770       -2.25608        2.00509
H         -5.62242       -2.81211        2.54038
H         -4.53520       -2.84790        1.12733
H         -3.97062       -2.18936        2.68173
C         -5.70462       -0.03815        2.83378
H         -6.13424        0.92956        2.53745
H         -6.43909       -0.55874        3.46879
H         -4.80532        0.15870        3.43919
