101
Int2_comp36_6_Sub22.log	Energy: -1643171.7928725
N         -0.12206       -2.36696       -1.03861
C         -0.15300       -3.25428       -0.03030
C         -0.65958       -4.54227       -0.21434
C         -1.09430       -4.92466       -1.47694
C         -1.00077       -4.01373       -2.52463
C         -0.51642       -2.73914       -2.25419
H         -0.45476       -1.97704       -3.02976
H         -1.30712       -4.27564       -3.53849
H         -0.71537       -5.24076        0.61996
C          0.46054       -2.80616        1.23268
N          0.81287       -1.50614        1.30708
C          1.51155       -1.06897        2.35825
C          1.87191       -1.90155        3.40956
C          1.48045       -3.23552        3.37000
C          0.76993       -3.69012        2.26789
H          0.48989       -4.73971        2.19102
H          2.44569       -1.49606        4.24376
H          1.74906       -0.00551        2.35359
Ir         0.27620       -0.26077       -0.34657
H          0.22806        0.58819       -1.70261
B         -1.62761       -0.22961        0.65934
O         -2.03532       -1.41007        1.26245
C         -2.76650       -1.07193        2.44555
C         -3.77831       -2.16590        2.72610
H         -4.41142       -2.36191        1.85142
H         -4.42127       -1.90150        3.57940
H         -3.24831       -3.09723        2.97461
C         -1.76134       -0.97071        3.58904
H         -2.25735       -0.78094        4.55198
H         -1.21075       -1.91931        3.66536
H         -1.03390       -0.16736        3.40067
C         -3.36683        0.31944        2.05993
O         -2.39198        0.81919        1.13387
C         -4.69979        0.19697        1.33466
H         -4.62528       -0.50325        0.49011
H         -5.49392       -0.15091        2.01104
H         -4.99010        1.18133        0.94390
C         -3.48793        1.30484        3.20837
H         -2.50852        1.51913        3.65379
H         -3.90633        2.25224        2.83809
H         -4.15827        0.91821        3.99127
B          0.45817        1.54982        0.56381
O          0.51612        2.78431       -0.05008
C          0.38855        3.80140        0.94244
C          1.20595        5.00800        0.51878
H          2.24822        4.73323        0.30820
H          0.77435        5.43747       -0.39713
H          1.19715        5.78570        1.29794
C         -1.09263        4.15674        1.02522
H         -1.28241        4.97858        1.73175
H         -1.42915        4.46328        0.02472
H         -1.68459        3.27531        1.31054
C          0.91490        3.07077        2.22246
O          0.57112        1.70802        1.94507
C          0.24682        3.49283        3.51728
H         -0.83586        3.31758        3.48076
H          0.66000        2.91193        4.35547
H          0.42444        4.55962        3.72243
C          2.43313        3.13469        2.35817
H          2.92978        2.82648        1.42602
H          2.78016        4.14285        2.62807
H          2.74927        2.44256        3.15317
B         -1.33970        0.48841       -1.44630
O         -1.72171        1.80575       -1.62121
C         -2.80309        1.87287       -2.54472
C         -4.09343        2.01401       -1.75005
H         -4.26988        1.12361       -1.13714
H         -3.99447        2.87277       -1.07085
H         -4.96307        2.17723       -2.40351
C         -2.60551        3.09158       -3.43019
H         -2.69522        4.00244       -2.82039
H         -3.36781        3.13407       -4.22334
H         -1.60978        3.09573       -3.89128
C         -2.69444        0.49461       -3.28893
O         -2.07876       -0.33337       -2.29925
C         -4.01936       -0.12467       -3.69310
H         -4.55978        0.52495       -4.39826
H         -3.84028       -1.09120       -4.18697
H         -4.65844       -0.30609       -2.81981
C         -1.75133        0.54516       -4.48807
H         -0.77932        0.97830       -4.20967
H         -1.57616       -0.47932       -4.84910
H         -2.17013        1.13201       -5.31825
H         -1.49359       -5.92790       -1.64136
H          1.73955       -3.92106        4.17980
C          2.39750       -0.16427       -0.77799
C          3.36438       -1.18201       -0.77938
C          2.93188        1.11104       -1.04712
C          4.72751       -0.94363       -0.96927
Cl         2.95805       -2.88601       -0.58074
C          4.28989        1.38901       -1.23697
H          2.25037        1.96268       -1.09933
C          5.22426        0.33797       -1.18420
H          5.41789       -1.79048       -0.94573
N          4.71201        2.70611       -1.40402
C          6.68876        0.60342       -1.35679
H          5.55523        2.82666       -1.95214
H          3.97808        3.33533       -1.70771
H          6.92102        1.00784       -2.35922
H          7.27897       -0.31513       -1.23328
H          7.05145        1.34299       -0.62248
