102
Int2_comp41_3_Sub21.log	Energy: -1368056.1603329
N         -0.31170        2.22978        1.34252
C         -0.37632        3.32870        0.57417
C         -0.60681        4.59115        1.13162
C         -0.76431        4.70437        2.50636
C         -0.69708        3.55425        3.28828
C         -0.47310        2.33369        2.66152
H         -0.44867        1.39182        3.21160
H         -0.81925        3.59402        4.37179
H         -0.65837        5.47849        0.50153
C         -0.19253        3.11172       -0.87302
N          0.05308        1.84397       -1.26452
C          0.22683        1.56354       -2.56301
C          0.15698        2.54671       -3.54150
C         -0.09353        3.86197       -3.15914
C         -0.26729        4.14566       -1.81188
H         -0.46507        5.16667       -1.48875
H          0.30376        2.27322       -4.58727
H          0.43028        0.51372       -2.79343
Ir         0.19619        0.32865        0.25303
H          0.56408       -0.68952        1.42664
B         -1.79253        0.01986       -0.48049
O         -1.95631       -0.55543       -1.72195
C         -3.31048       -0.39906       -2.15108
C         -3.31106       -0.07455       -3.63524
H         -2.68294        0.79751       -3.85818
H         -4.33140        0.12104       -3.99872
H         -2.90616       -0.93108       -4.19353
C         -4.01473       -1.72790       -1.91218
H         -5.05416       -1.71500       -2.27121
H         -3.46828       -2.51584       -2.45026
H         -4.00754       -1.98653       -0.84669
C         -3.82878        0.76048       -1.22375
O         -2.94364        0.68362       -0.09948
C         -3.64085        2.14455       -1.83643
H         -2.61595        2.27898       -2.20920
H         -4.33913        2.32576       -2.66636
H         -3.81909        2.90064       -1.05798
C         -5.25750        0.59997       -0.73719
H         -5.38786       -0.33058       -0.17058
H         -5.51578        1.43868       -0.07432
H         -5.96408        0.59912       -1.58102
B          0.85665       -1.26074       -0.81958
O          1.30981       -2.44683       -0.27032
C          1.50822       -3.38417       -1.32813
C          2.64961       -4.31311       -0.96017
H          3.55051       -3.74779       -0.68780
H          2.36000       -4.92580       -0.09384
H          2.89343       -4.99113       -1.79265
C          0.20572       -4.16444       -1.48228
H          0.28769       -4.96640       -2.23106
H         -0.04975       -4.61031       -0.51054
H         -0.61711       -3.48932       -1.75966
C          1.79288       -2.44218       -2.54318
O          1.01107       -1.29288       -2.20119
C          1.32856       -2.97331       -3.88608
H          0.24327       -3.13686       -3.89413
H          1.56932       -2.24703       -4.67687
H          1.83303       -3.92070       -4.13090
C          3.24873       -1.99315       -2.61407
H          3.58448       -1.60269       -1.64178
H          3.91675       -2.80884       -2.92799
H          3.33162       -1.17639       -3.34612
B         -1.09245       -0.87665        1.36013
O         -1.55219       -0.45881        2.61247
C         -1.87848       -1.62607        3.36847
C         -0.62210       -2.04706        4.12671
H          0.18949       -2.30894        3.43190
H         -0.27957       -1.20403        4.74467
H         -0.80826       -2.90578        4.78799
C         -2.99235       -1.28819        4.34160
H         -2.62328       -0.57288        5.09154
H         -3.33984       -2.18760        4.87258
H         -3.84457       -0.82698        3.82671
C         -2.26594       -2.64209        2.24146
O         -1.46842       -2.19482        1.14299
C         -1.91597       -4.08967        2.53618
H         -2.44057       -4.44964        3.43466
H         -2.21919       -4.71963        1.68709
H         -0.83548       -4.21755        2.67820
C         -3.73042       -2.52635        1.83609
H         -3.98493       -1.48316        1.59921
H         -3.89755       -3.13850        0.93864
H         -4.40375       -2.88901        2.62607
H         -0.93954        5.68170        2.96127
H         -0.15291        4.66084       -3.90144
C          2.25338        0.79048        0.28963
C          2.90525        1.89141       -0.19442
C          3.32614       -0.04256        0.78490
O          4.25761        1.79907       -0.03317
H          2.57386        2.80315       -0.68690
C          4.50539        0.61046        0.56357
H          3.21151       -1.02803        1.23143
C          5.93605        0.28615        0.84297
H          6.47663        0.35120       -0.12073
C          6.56153        1.31253        1.78948
H          7.63766        1.12080        1.92642
H          6.43858        2.33170        1.39574
H          6.07562        1.27083        2.77749
C          6.08055       -1.13403        1.37302
H          5.66204       -1.87003        0.66996
H          7.13950       -1.38220        1.54046
H          5.55167       -1.24913        2.33251
