101
Int2_comp63_0_Sub16.log	Energy: -1378111.3583593
N          0.23437       -2.14473       -1.43166
C          0.93408       -3.09074       -0.78581
C          1.17147       -4.34042       -1.36829
C          0.67228       -4.60051       -2.63736
C         -0.06320       -3.61263       -3.28735
C         -0.26166       -2.39706       -2.64275
H         -0.85768       -1.59343       -3.07928
H         -0.48185       -3.77553       -4.28170
H          1.74680       -5.10111       -0.84169
C          1.40749       -2.72971        0.56325
N          1.15379       -1.46988        0.97454
C          1.53476       -1.07266        2.19591
C          2.18917       -1.92622        3.07472
C          2.46117       -3.23041        2.66996
C          2.06609       -3.63402        1.40246
H          2.26418       -4.65027        1.06503
H          2.48234       -1.55932        4.05927
H          1.31074       -0.03188        2.44250
Ir         0.21112       -0.13911       -0.41655
H         -0.26365        0.84684       -1.57609
B         -1.41174       -0.59012        0.90975
O         -2.28522       -1.65958        0.85561
C         -2.66261       -2.01518        2.19178
C         -4.11624       -2.45115        2.19500
H         -4.76996       -1.67771        1.77254
H         -4.45690       -2.67904        3.21644
H         -4.22863       -3.35952        1.58532
C         -1.76834       -3.18055        2.60317
H         -2.03314       -3.57272        3.59578
H         -1.88316       -3.98841        1.86602
H         -0.70997       -2.88441        2.61639
C         -2.36521       -0.69724        2.99460
O         -1.37933       -0.05730        2.18039
C         -3.55889        0.24466        3.07731
H         -3.98222        0.42468        2.08181
H         -4.34746       -0.14465        3.73765
H         -3.21574        1.21114        3.47358
C         -1.78120       -0.91491        4.37985
H         -0.83327       -1.46663        4.33675
H         -1.58159        0.06040        4.84701
H         -2.48293       -1.46666        5.02377
B          0.52454        1.64850        0.48633
O          0.30730        2.88116       -0.10849
C          0.53451        3.89893        0.86808
C          1.08485        5.13350        0.18044
H          1.96762        4.89094       -0.42528
H          0.31949        5.55652       -0.48697
H          1.36071        5.90513        0.91565
C         -0.81098        4.19723        1.52244
H         -0.74848        5.02910        2.23974
H         -1.53103        4.46212        0.73498
H         -1.19613        3.30371        2.03538
C          1.53144        3.18804        1.83831
O          1.09679        1.82722        1.73936
C          1.44289        3.63322        3.28518
H          0.44515        3.44135        3.70064
H          2.17640        3.07923        3.88988
H          1.66716        4.70676        3.38054
C          2.97316        3.23646        1.34200
H          3.04335        2.91083        0.29329
H          3.40854        4.24202        1.43899
H          3.57608        2.53754        1.93956
B         -1.72028        0.37783       -1.00026
O         -2.33900       -0.27835       -2.06926
C         -3.31543        0.60859       -2.61773
C         -2.62712        1.43082       -3.70483
H         -1.81516        2.04176       -3.28326
H         -2.18732        0.74577       -4.44471
H         -3.33013        2.09602       -4.22684
C         -4.44664       -0.20861       -3.21265
H         -4.07731       -0.77465       -4.08070
H         -5.26635        0.44139       -3.55493
H         -4.84268       -0.92809       -2.48499
C         -3.70356        1.47194       -1.37017
O         -2.49545        1.45936       -0.60609
C         -4.06762        2.91339       -1.67675
H         -4.94386        2.96841       -2.34095
H         -4.31393        3.43544       -0.74060
H         -3.23034        3.44571       -2.14538
C         -4.79584        0.81875       -0.53189
H         -4.52745       -0.21927       -0.28786
H         -4.90340        1.38067        0.40665
H         -5.76714        0.82684       -1.04708
H          0.85422       -5.56699       -3.11232
H          2.97568       -3.92853        3.33383
C          2.17933        0.24662       -1.09743
C          3.39080       -0.23717       -0.58748
N          2.51832        1.12456       -2.09902
C          4.45282        0.36908       -1.30940
H          3.50145       -0.93401        0.23869
C          3.88843        1.21071       -2.24405
C          1.60603        1.86904       -2.92859
O          5.79251        0.19512       -1.16420
H          4.35425        1.83500       -3.00181
H          0.97049        1.19801       -3.52847
H          2.18588        2.49768       -3.61740
H          0.96161        2.51593       -2.31522
C          6.18482       -0.64561       -0.12682
H          5.83783       -0.28000        0.85876
H          5.80412       -1.67676       -0.25893
H          7.28353       -0.67475       -0.12532
