100
Int2_comp173_5_Sub16.log	Energy: -1717864.9380894
N          0.10392        2.11056        1.47699
C         -0.01211        3.27679        0.82202
C          0.02177        4.49871        1.50257
C          0.19013        4.50069        2.88051
C          0.32062        3.28353        3.54336
C          0.26912        2.11010        2.79992
H          0.33153        1.12585        3.26418
H          0.46003        3.23522        4.62440
H         -0.06673        5.44035        0.96196
C         -0.14171        3.18208       -0.64392
N         -0.02228        1.94784       -1.17862
C         -0.07456        1.78915       -2.50847
C         -0.26965        2.86054       -3.37040
C         -0.41932        4.13734       -2.83655
C         -0.35103        4.29781       -1.45982
H         -0.46190        5.28683       -1.01772
H         -0.30054        2.68267       -4.44617
H          0.05970        0.76515       -2.86547
Ir         0.16975        0.27466        0.16530
H          0.50461       -0.94978        1.13356
B         -1.89366        0.22193       -0.35982
O         -2.94797        0.90090        0.22083
C         -3.97140        1.09820       -0.76470
C         -5.33065        0.97503       -0.10201
H         -5.44178        0.01395        0.41478
H         -6.13858        1.07086       -0.84330
H         -5.45136        1.77655        0.64139
C         -3.78401        2.50876       -1.31293
H         -4.57546        2.78247       -2.02563
H         -3.80931        3.21835       -0.47325
H         -2.81208        2.61330       -1.81490
C         -3.64838       -0.01756       -1.82035
O         -2.24754       -0.22886       -1.61663
C         -4.34627       -1.34068       -1.53500
H         -4.14974       -1.66521       -0.50553
H         -5.43228       -1.27833       -1.69622
H         -3.93701       -2.10858       -2.20631
C         -3.87177        0.39107       -3.26558
H         -3.25154        1.25373       -3.54150
H         -3.60103       -0.44455       -3.92738
H         -4.92801        0.64155       -3.44732
B          0.39255       -1.24552       -1.16898
O          0.24096       -2.59008       -0.92745
C          0.34840       -3.29376       -2.16423
C          1.00090       -4.63907       -1.90779
H          1.94480       -4.52167       -1.36036
H          0.33088       -5.26030       -1.29549
H          1.19685       -5.17202       -2.85107
C         -1.06821       -3.47269       -2.70073
H         -1.09152       -4.07542       -3.62084
H         -1.66879       -3.97835       -1.93083
H         -1.52881       -2.49276       -2.89113
C          1.19919       -2.30538       -3.02805
O          0.80907       -1.03915       -2.48180
C          0.89102       -2.32132       -4.51307
H         -0.15744       -2.06004       -4.70756
H          1.52871       -1.58992       -5.03177
H          1.09273       -3.31351       -4.94500
C          2.69826       -2.45219       -2.78980
H          2.92711       -2.46474       -1.71447
H          3.09882       -3.36815       -3.24854
H          3.21274       -1.58606       -3.23051
B         -1.07033       -0.81369        1.42643
O         -1.21891       -0.39486        2.74922
C         -1.66353       -1.51756        3.51414
C         -0.42107       -2.23307        4.03790
H          0.20822       -2.59374        3.21124
H          0.17725       -1.52246        4.62707
H         -0.67846       -3.08473        4.68408
C         -2.51099       -1.02035        4.67014
H         -1.88350       -0.44492        5.36687
H         -2.95210       -1.86126        5.22672
H         -3.31707       -0.36331        4.32012
C         -2.43274       -2.35492        2.43706
O         -1.74277       -2.00726        1.23267
C         -2.35236       -3.85944        2.61943
H         -2.79355       -4.16603        3.58037
H         -2.90953       -4.35588        1.81170
H         -1.31411       -4.21113        2.57350
C         -3.88449       -1.91464        2.29442
H         -3.94523       -0.83059        2.12332
H         -4.32986       -2.42804        1.43043
H         -4.47763       -2.17474        3.18289
H          0.22544        5.44438        3.42907
H         -0.58316        5.00141       -3.48393
C          2.31151        0.48319        0.09861
C          2.88986        1.65438       -0.42308
C          3.23333       -0.48368        0.53855
C          4.26236        1.82731       -0.51244
H          2.28111        2.48009       -0.79389
C          4.62694       -0.31801        0.44834
Cl         2.72016       -2.02120        1.20749
C          5.15304        0.85671       -0.08598
F          4.74106        2.96772       -1.02754
O          5.48932       -1.29604        0.83620
H          6.23185        0.98892       -0.17002
C          5.77572       -1.33189        2.21336
H          6.23988       -0.38750        2.55100
H          4.86880       -1.52085        2.81238
H          6.48473       -2.15533        2.37434
