100
Int2_comp89_1_Sub23.log	Energy: -1364903.8445588
N         -1.52348        1.51957        1.34255
C         -2.14812        0.94121        2.38233
C         -3.02309        1.67040        3.19456
C         -3.24205        3.01408        2.92354
C         -2.57183        3.60214        1.85401
C         -1.71833        2.81517        1.09026
H         -1.13523        3.22101        0.26138
H         -2.70246        4.65752        1.60958
H         -3.53665        1.19176        4.02742
C         -1.84678       -0.48437        2.60258
N         -1.03507       -1.07614        1.70353
C         -0.70737       -2.36315        1.85408
C         -1.18279       -3.13189        2.90795
C         -2.02573       -2.54087        3.84289
C         -2.35669       -1.20231        3.68738
H         -3.00926       -0.71415        4.40971
H         -0.88885       -4.17975        2.98272
H         -0.03415       -2.76760        1.09435
Ir        -0.42174        0.09058        0.02159
H         -0.42243        0.86097       -1.37863
B          1.47229        0.15661        1.03905
O          2.79204        0.18415        0.62032
C          3.65338        0.09558        1.76296
C          4.87374       -0.72176        1.38258
H          4.58606       -1.69435        0.96324
H          5.52599       -0.88870        2.25355
H          5.45326       -0.18318        0.61855
C          4.06433        1.51012        2.15827
H          4.73056        1.50767        3.03293
H          4.60568        1.98172        1.32681
H          3.18162        2.12546        2.38546
C          2.71535       -0.56383        2.82217
O          1.43052       -0.08905        2.40579
C          2.69215       -2.08566        2.71568
H          2.50645       -2.40092        1.67805
H          3.63219       -2.53557        3.06728
H          1.87178       -2.46966        3.33959
C          2.95391       -0.13882        4.25846
H          2.81546        0.94237        4.38594
H          2.23451       -0.65030        4.91472
H          3.96881       -0.40908        4.58829
B          0.46775       -1.34977       -1.10748
O          0.56770       -1.37865       -2.47959
C          1.53121       -2.36794       -2.84341
C          1.15357       -2.95601       -4.18976
H          0.11730       -3.31739       -4.19292
H          1.24162       -2.18031       -4.96416
H          1.82299       -3.78733       -4.45996
C          2.88624       -1.67062       -2.92471
H          3.67944       -2.35288       -3.26516
H          2.80346       -0.83719       -3.63582
H          3.16247       -1.23880       -1.95187
C          1.44064       -3.36603       -1.64211
O          1.07539       -2.48931       -0.56780
C          2.74174       -4.05959       -1.28496
H          3.51689       -3.33195       -1.01178
H          2.58417       -4.72983       -0.42649
H          3.10848       -4.66663       -2.12678
C          0.31775       -4.38405       -1.80454
H         -0.62562       -3.88960       -2.07775
H          0.55548       -5.13703       -2.57003
H          0.16474       -4.90637       -0.84808
B          0.91799        1.46494       -0.79313
O          0.92716        2.80238       -0.39081
C          1.56286        3.57635       -1.41291
C          0.45671        4.13968       -2.30101
H         -0.12789        3.33099       -2.76395
H         -0.22520        4.74410       -1.68381
H          0.85368        4.78379       -3.09876
C          2.33615        4.70708       -0.75998
H          1.63769        5.39128       -0.25561
H          2.89902        5.28446       -1.50902
H          3.03831        4.32622       -0.00763
C          2.45019        2.50662       -2.14960
O          1.75681        1.29443       -1.87677
C          2.53176        2.68498       -3.65716
H          2.97894        3.65635       -3.91874
H          3.16529        1.89289       -4.08202
H          1.54304        2.60825       -4.12676
C          3.85416        2.38850       -1.57195
H          3.81217        2.24666       -0.48724
H          4.33388        1.49726       -2.00095
H          4.47068        3.26850       -1.80702
H         -3.92720        3.59570        3.54400
H         -2.42169       -3.11250        4.68487
C         -2.33835       -0.50328       -0.71080
C         -3.29819        0.42594       -1.10794
C         -2.73740       -1.85178       -0.79358
C         -4.57044        0.02497       -1.55674
H         -3.08139        1.50151       -1.07785
N         -3.92870       -2.26251       -1.21244
H         -2.04139       -2.64969       -0.50488
C         -4.82587       -1.35667       -1.58940
N         -5.51291        0.96661       -1.92081
H         -5.79267       -1.73837       -1.93506
H         -5.12847        1.87407       -2.14612
C         -6.71263        0.60776       -2.61851
H         -7.28273        1.51761       -2.85263
H         -7.36031       -0.02869       -1.99260
H         -6.53143        0.06067       -3.56603
