106
Int2_comp159_7_Sub13.log	Energy: -1702534.4469228
N          0.47494       -1.90973       -1.34773
C          1.32281       -2.64367       -0.61059
C          1.99720       -3.73843       -1.16086
C          1.77992       -4.06599       -2.49219
C          0.88235       -3.30505       -3.23734
C          0.24803       -2.23267       -2.62112
H         -0.48686       -1.60983       -3.13541
H          0.67297       -3.53295       -4.28356
H          2.69661       -4.31985       -0.56103
C          1.46313       -2.24101        0.80142
N          0.84178       -1.10243        1.17055
C          0.90226       -0.68770        2.44179
C          1.57860       -1.40730        3.41870
C          2.20697       -2.59708        3.06274
C          2.14801       -3.01602        1.74127
H          2.62428       -3.94785        1.43987
H          1.60278       -1.03067        4.44208
H          0.38722        0.25253        2.65436
Ir        -0.15935        0.00213       -0.36848
H         -0.64350        0.90070       -1.60137
B         -1.82865       -0.87488        0.67048
O         -2.38867       -2.11768        0.45673
C         -2.87569       -2.62458        1.70616
C         -4.16025       -3.39388        1.45842
H         -4.90801       -2.77616        0.94527
H         -4.59233       -3.75439        2.40423
H         -3.94858       -4.26643        0.82345
C         -1.80154       -3.56429        2.24452
H         -2.11666       -4.06005        3.17406
H         -1.59910       -4.33610        1.48792
H         -0.86209       -3.02739        2.43687
C         -3.04148       -1.31917        2.56693
O         -2.13590       -0.41284        1.93046
C         -4.43116       -0.70347        2.47597
H         -4.73492       -0.57719        1.42993
H         -5.18593       -1.31026        2.99699
H         -4.40406        0.29352        2.93895
C         -2.63491       -1.46309        4.02346
H         -1.58379       -1.76349        4.12164
H         -2.75745       -0.49566        4.53180
H         -3.26452       -2.20392        4.53932
B         -0.47919        1.76950        0.58260
O         -0.88765        2.93765       -0.03765
C         -1.23692        3.88252        0.97634
C         -0.95758        5.28437        0.46973
H          0.07524        5.38362        0.11152
H         -1.62987        5.51200       -0.37038
H         -1.13244        6.03147        1.25921
C         -2.72484        3.70021        1.26173
H         -3.09995        4.43779        1.98666
H         -3.27714        3.81601        0.31866
H         -2.92620        2.68572        1.63566
C         -0.33556        3.42096        2.16757
O         -0.24627        2.01158        1.93090
C         -0.92821        3.65201        3.54472
H         -1.86997        3.10197        3.66723
H         -0.22626        3.30099        4.31593
H         -1.11571        4.72270        3.71856
C          1.08002        3.98275        2.09105
H          1.50965        3.83184        1.08989
H          1.11170        5.05543        2.33192
H          1.71343        3.44704        2.81337
B         -2.05104        0.10235       -1.24559
O         -2.33688       -0.65458       -2.38384
C         -3.39544       -0.00053       -3.08718
C         -2.75607        0.97121       -4.07568
H         -2.17097        1.74144       -3.55179
H         -2.07119        0.41351       -4.73121
H         -3.50604        1.47022       -4.70634
C         -4.21366       -1.04208       -3.82686
H         -3.60230       -1.49727       -4.62007
H         -5.09789       -0.58727       -4.29885
H         -4.54196       -1.84318       -3.15273
C         -4.14843        0.73348       -1.92648
O         -3.09726        0.97383       -0.98670
C         -4.77115        2.06410       -2.30842
H         -5.52419        1.93556       -3.10104
H         -5.26979        2.50084       -1.43074
H         -4.01088        2.77718       -2.65118
C         -5.18325       -0.15818       -1.25118
H         -4.73481       -1.11891       -0.95979
H         -5.54530        0.34712       -0.34465
H         -6.04711       -0.34969       -1.90381
H          2.30594       -4.91033       -2.94315
H          2.73972       -3.19425        3.80596
C          1.76658        0.71931       -0.85665
C          2.01333        1.99015       -1.41671
N          2.82214       -0.08073       -0.65392
N          3.23368        2.40703       -1.73898
H          1.18693        2.68502       -1.59644
C          4.06043        0.30999       -0.95853
C          4.23301        1.58879       -1.50997
C          5.19517       -0.61817       -0.65502
Cl         5.83834        2.14731       -1.93035
H          5.91849       -0.59852       -1.48544
H          4.77813       -1.63622       -0.58728
C          5.93247       -0.27815        0.65080
H          6.30138        0.75811        0.55159
C          5.00686       -0.34321        1.85865
H          5.53914       -0.05579        2.77890
H          4.13718        0.32108        1.74697
H          4.61786       -1.36494        1.99846
C          7.13887       -1.19122        0.82639
H          7.83264       -1.11067       -0.02487
H          7.69837       -0.94316        1.74184
H          6.82468       -2.24608        0.90359
