115
Int2_comp30_5_Sub11.log	Energy: -1467285.7327021
N         -1.43487        2.12226        1.37815
C         -1.97962        3.11087        0.65163
C         -2.50036        4.25688        1.26197
C         -2.44871        4.36856        2.64493
C         -1.88555        3.33125        3.38358
C         -1.39155        2.22224        2.70647
H         -0.96807        1.36190        3.22653
H         -1.82641        3.37389        4.47222
H         -2.93275        5.05924        0.66507
C         -1.98596        2.90476       -0.80848
N         -1.36837        1.79297       -1.26189
C         -1.32760        1.53882       -2.57725
C         -1.91019        2.38921       -3.50816
C         -2.55732        3.53794       -3.06053
C         -2.59424        3.79610       -1.69754
H         -3.09815        4.68560       -1.32219
H         -1.84924        2.14354       -4.56927
H         -0.80001        0.62413       -2.86226
Ir        -0.46812        0.48506        0.18021
H          0.36314       -0.34051        1.26507
B         -2.29975       -0.54295       -0.28913
O         -3.55355       -0.32367        0.24834
C         -4.54483       -0.61562       -0.74474
C         -5.73784       -1.26999       -0.07204
H         -5.44345       -2.16511        0.49000
H         -6.50038       -1.55558       -0.81248
H         -6.19433       -0.56166        0.63463
C         -4.96113        0.71907       -1.35400
H         -5.77732        0.60276       -2.08168
H         -5.30453        1.38186       -0.54651
H         -4.11544        1.20913       -1.85561
C         -3.76464       -1.53834       -1.75188
O         -2.40218       -1.18247       -1.50584
C         -3.90348       -3.02394       -1.44768
H         -3.66185       -3.23121       -0.39842
H         -4.91546       -3.39653       -1.66326
H         -3.18702       -3.57866       -2.07054
C         -4.07149       -1.28128       -3.21746
H         -3.83687       -0.24797       -3.50373
H         -3.45775       -1.94951       -3.83889
H         -5.13045       -1.47963       -3.44250
B          0.55055       -0.79537       -1.01877
O          1.41542       -1.78057       -0.57929
C          1.70271       -2.64234       -1.68078
C          3.09907       -3.21074       -1.51810
H          3.83652       -2.41316       -1.36507
H          3.12727       -3.86960       -0.63787
H          3.39098       -3.80348       -2.39874
C          0.66036       -3.75713       -1.65707
H          0.84644       -4.51516       -2.43250
H          0.69194       -4.24132       -0.67089
H         -0.35018       -3.34232       -1.78568
C          1.52197       -1.67823       -2.89903
O          0.51648       -0.78505       -2.40936
C          1.01764       -2.33974       -4.16774
H          0.03119       -2.79489       -4.01132
H          0.92402       -1.58921       -4.96700
H          1.71758       -3.11642       -4.51234
C          2.76578       -0.84459       -3.18374
H          3.12836       -0.36511       -2.26369
H          3.57793       -1.44618       -3.61784
H          2.50435       -0.04717       -3.89440
B         -1.10276       -1.05867        1.42615
O         -1.52052       -0.77212        2.72957
C         -1.31749       -1.94546        3.51817
C          0.09276       -1.87011        4.09881
H          0.84954       -1.86372        3.30041
H          0.19412       -0.93480        4.66881
H          0.30532       -2.71037        4.77559
C         -2.34492       -1.97349        4.63413
H         -2.15751       -1.14181        5.32943
H         -2.28416       -2.91307        5.20430
H         -3.36300       -1.86063        4.24062
C         -1.46461       -3.08103        2.44992
O         -1.01726       -2.43385        1.25639
C         -0.59813       -4.30391        2.69173
H         -0.84677       -4.78236        3.65158
H         -0.76765       -5.03730        1.88978
H          0.46804       -4.04462        2.68758
C         -2.91622       -3.49606        2.24317
H         -3.54481       -2.61621        2.04376
H         -2.97077       -4.16800        1.37502
H         -3.31675       -4.03335        3.11485
H         -2.84404        5.25818        3.13995
H         -3.02952        4.22693       -3.76409
C          1.30475        1.65947        0.06693
C          1.42500        2.84791       -0.67393
C          2.45006        1.27469        0.79315
C          2.59938        3.60398       -0.67409
H          0.59382        3.21635       -1.28021
C          3.63712        2.01425        0.81275
H          2.42903        0.34397        1.36781
C          3.70328        3.19677        0.06691
H          2.64822        4.52621       -1.26128
C          4.83869        1.52532        1.57627
H          4.62008        3.79454        0.06850
C          5.92790        0.91510        0.68728
H          4.52247        0.77137        2.31755
H          5.28131        2.36001        2.14715
H          6.22844        1.68720       -0.04801
C          5.42250       -0.29153       -0.10068
H          4.54941        0.00081       -0.70352
H          5.05574       -1.05396        0.61223
C          6.50934       -0.89702       -0.98046
H          6.12165       -1.78106       -1.51333
H          6.79154       -0.16651       -1.76051
C          7.74547       -1.26581       -0.16749
H          8.53705       -1.66461       -0.82318
H          7.48505       -2.07827        0.53546
C          8.26197       -0.06860        0.62372
H          8.62837        0.69920       -0.08189
H          9.12792       -0.35903        1.24126
C          7.16881        0.53951        1.49619
H          6.87523       -0.18849        2.27584
H          7.55179        1.42562        2.03043
