110
Int2_comp49_2_Sub11.log	Energy: -1701734.7335066
N         -0.37129       -2.18075        0.75281
C         -0.77881       -2.91495       -0.29520
C         -1.07690       -4.27322       -0.15365
C         -0.97186       -4.86258        1.09930
C         -0.57546       -4.08095        2.18046
C         -0.27792       -2.74164        1.95792
H          0.07638       -2.09111        2.75719
H         -0.48702       -4.49802        3.18468
H         -1.38437       -4.86801       -1.01292
C         -0.93463       -2.18846       -1.56980
N         -0.52027       -0.90581       -1.59345
C         -0.70552       -0.16806       -2.69214
C         -1.30979       -0.67657       -3.83448
C         -1.73180       -2.00156       -3.83466
C         -1.54151       -2.76277       -2.68949
H         -1.88651       -3.79516       -2.65625
H         -1.43997       -0.03296       -4.70543
H         -0.32233        0.85293       -2.63912
Ir         0.27380       -0.08375        0.23247
H          0.46276        0.61147        1.65537
B          2.13209       -0.80482       -0.57409
O          3.31371       -0.17128       -0.89017
C          4.10558       -1.02858       -1.72422
C          4.76646       -0.17516       -2.79194
H          4.02892        0.43584       -3.32727
H          5.31027       -0.79884       -3.51783
H          5.48803        0.50727       -2.31956
C          5.16584       -1.69346       -0.85690
H          5.82334       -2.34254       -1.45297
H          5.78615       -0.91816       -0.38777
H          4.70395       -2.29575       -0.06114
C          3.04217       -2.04775       -2.25571
O          2.07364       -2.04073       -1.20124
C          2.34250       -1.55158       -3.51723
H          2.00278       -0.51322       -3.39348
H          3.00038       -1.60354       -4.39677
H          1.46017       -2.18044       -3.70680
C          3.54015       -3.46632       -2.45474
H          3.90509       -3.89956       -1.51496
H          2.71392       -4.09538       -2.81758
H          4.34860       -3.50173       -3.20069
B          0.84322        1.74390       -0.44716
O          0.95664        2.89803        0.29689
C          1.65368        3.87031       -0.48743
C          1.16739        5.25549       -0.10682
H          0.07477        5.33440       -0.17783
H          1.45357        5.47069        0.93281
H          1.62081        6.02363       -0.75203
C          3.13876        3.71620       -0.17379
H          3.74764        4.47328       -0.68987
H          3.27671        3.82790        0.91058
H          3.49168        2.71049       -0.44470
C          1.29778        3.42393       -1.94421
O          1.13799        2.00816       -1.78347
C          2.38241        3.67824       -2.97372
H          3.30562        3.14423       -2.71497
H          2.04866        3.32438       -3.96080
H          2.60450        4.75321       -3.05548
C         -0.03877        3.97976       -2.42314
H         -0.83189        3.78819       -1.68548
H          0.01026        5.06114       -2.61634
H         -0.31996        3.47980       -3.36248
B          1.91443       -0.06373        1.52535
O          2.17180       -1.11888        2.40088
C          2.93393       -0.60195        3.49824
C          1.94267       -0.20767        4.58936
H          1.25090        0.57072        4.23525
H          1.34783       -1.08994        4.86950
H          2.44937        0.16160        5.49246
C          3.86524       -1.68739        4.00409
H          3.27527       -2.51669        4.42159
H          4.52306       -1.30298        4.79821
H          4.48767       -2.08975        3.19491
C          3.64824        0.63850        2.85173
O          2.74322        1.00218        1.81215
C          3.81903        1.82819        3.78077
H          4.43151        1.56289        4.65615
H          4.32816        2.64070        3.24219
H          2.85037        2.21162        4.12519
C          4.98216        0.28482        2.21045
H          4.88088       -0.59417        1.56488
H          5.30301        1.12714        1.58113
H          5.76017        0.08964        2.96295
H         -1.19981       -5.92278        1.22900
H         -2.21338       -2.43804       -4.71230
C         -1.68537        0.67573        0.45897
S         -3.07174       -0.37369        0.32766
C         -2.13457        1.95266        0.69959
C         -4.23206        0.87656        0.57082
C         -3.56402        2.07370        0.76150
H         -1.45767        2.79730        0.83530
C         -5.70564        0.62616        0.55232
C         -4.25349        3.30057        0.98220
N         -4.82031        4.29938        1.15673
H         -6.18881        1.59613        0.76930
C         -6.14285       -0.36650        1.63801
H         -5.81547        0.00107        2.62333
H         -5.61654       -1.32457        1.47313
C         -7.64888       -0.59838        1.61725
H         -7.92888       -1.33588        2.38704
H         -8.16273        0.34171        1.88773
C         -8.12723       -1.05329        0.24273
H         -9.22212       -1.17994        0.23847
H         -7.69777       -2.04765        0.02117
C         -7.70039       -0.07200       -0.84350
H         -8.21682        0.89196       -0.68531
H         -8.01702       -0.43262       -1.83589
C         -6.19453        0.16159       -0.82715
H         -5.66819       -0.77432       -1.08999
H         -5.90417        0.90470       -1.58672
