99
Int2_comp43_4_Sub22.log	Energy: -1546032.9674707
N         -0.42385        2.30163        1.15148
C         -0.63439        3.25536        0.22949
C         -1.20896        4.48314        0.57332
C         -1.53955        4.72688        1.89988
C         -1.28179        3.74188        2.84915
C         -0.72710        2.53896        2.42706
H         -0.53603        1.71965        3.11909
H         -1.51183        3.89323        3.90487
H         -1.39168        5.24474       -0.18397
C         -0.16945        2.93957       -1.13274
N          0.36063        1.71201       -1.31670
C          0.85025        1.36953       -2.51641
C          0.84091        2.24784       -3.59244
C          0.29966        3.51947       -3.42179
C         -0.21113        3.86504       -2.17890
H         -0.63336        4.85571       -2.01720
H          1.25808        1.92734       -4.54811
H          1.25128        0.35399       -2.58762
Ir         0.32255        0.33357        0.33639
H          0.46446       -0.60918        1.61845
B         -1.48620       -0.11675       -0.72057
O         -2.68205        0.57432       -0.66894
C         -3.37319        0.41668       -1.91548
C         -4.85801        0.26794       -1.63660
H         -5.05884       -0.56372       -0.94995
H         -5.41899        0.09711       -2.56787
H         -5.23730        1.18987       -1.17205
C         -3.12402        1.68540       -2.72223
H         -3.68830        1.68878       -3.66602
H         -3.43992        2.55184       -2.12303
H         -2.05800        1.80639       -2.95572
C         -2.68537       -0.85525       -2.53797
O         -1.42870       -0.89211       -1.85894
C         -3.40916       -2.15610       -2.21834
H         -3.56921       -2.25547       -1.13848
H         -4.37747       -2.22732       -2.73469
H         -2.78044       -2.99874       -2.53968
C         -2.41911       -0.76729       -4.03140
H         -1.76606        0.08031       -4.27555
H         -1.91341       -1.68558       -4.36359
H         -3.35731       -0.66844       -4.59822
B          1.08872       -1.33965       -0.52299
O          1.26333       -2.55470        0.11193
C          1.60298       -3.53267       -0.87092
C          2.51659       -4.56908       -0.24493
H          3.38913       -4.09877        0.22688
H          1.96710       -5.12097        0.53176
H          2.86722       -5.29325       -0.99642
C          0.29435       -4.17167       -1.32694
H          0.45831       -4.99502       -2.03808
H         -0.22658       -4.56376       -0.44184
H         -0.35891       -3.41492       -1.78496
C          2.26792       -2.65756       -1.98480
O          1.57840       -1.41388       -1.82209
C          2.05135       -3.15808       -3.40088
H          0.98331       -3.18704       -3.65227
H          2.55164       -2.48541       -4.11364
H          2.47500       -4.16568       -3.53171
C          3.74720       -2.39080       -1.72958
H          3.90764       -2.01602       -0.70820
H          4.36078       -3.29005       -1.88750
H          4.09066       -1.61014       -2.42406
B         -1.16218       -0.72310        1.34128
O         -1.79872       -0.13609        2.43642
C         -2.29665       -1.18545        3.26662
C         -1.20187       -1.53387        4.27208
H         -0.29866       -1.90092        3.76283
H         -0.92915       -0.62642        4.83073
H         -1.53170       -2.29584        4.99311
C         -3.53617       -0.69351        3.99029
H         -3.25916        0.10679        4.69246
H         -4.00584       -1.50451        4.56755
H         -4.27219       -0.28428        3.28683
C         -2.54251       -2.33042        2.22624
O         -1.56172       -2.04692        1.22502
C         -2.30449       -3.73490        2.75115
H         -2.98075       -3.96476        3.58895
H         -2.49386       -4.46251        1.94840
H         -1.26700       -3.86652        3.08293
C         -3.91948       -2.23678        1.58074
H         -4.08561       -1.23165        1.16740
H         -3.97807       -2.96610        0.76065
H         -4.72188       -2.46751        2.29608
H         -1.98777        5.67992        2.18906
H          0.27636        4.23571       -4.24582
C          2.38100        0.72550        0.79017
C          3.15604        1.84388        0.56315
C          3.18053       -0.30125        1.41227
S          4.80892        1.61673        1.08448
C          2.82956        3.18105       -0.02591
C          4.49571        0.01199        1.63490
H          2.77916       -1.28139        1.68040
H          3.65070        3.89451        0.13746
H          1.93245        3.61364        0.43954
H          2.65750        3.13402       -1.11379
C          5.56023       -0.83731        2.24443
H          5.98190       -0.38659        3.15803
H          6.39916       -1.01247        1.55072
H          5.13982       -1.81652        2.51661
