111
Int2_comp73_0_Sub12.log	Energy: -1691676.0238807
N         -0.39481       -1.90235        1.51122
C         -0.79642       -2.98581        0.82764
C         -1.21557       -4.14639        1.48751
C         -1.22469       -4.16878        2.87551
C         -0.81349       -3.03391        3.56930
C         -0.40233       -1.92190        2.84397
H         -0.04086       -1.01496        3.32841
H         -0.80889       -3.00287        4.65986
H         -1.54500       -5.01936        0.92530
C         -0.80568       -2.85426       -0.64103
N         -0.49643       -1.63714       -1.13898
C         -0.54016       -1.42824       -2.46171
C         -0.88460       -2.43427       -3.35541
C         -1.18891       -3.70014       -2.86265
C         -1.14975       -3.90912       -1.49155
H         -1.38723       -4.88897       -1.08039
H         -0.91202       -2.21403       -4.42345
H         -0.29890       -0.41234       -2.78524
Ir         0.06620       -0.09574        0.25402
H          0.27475        1.06944        1.32486
B          1.95723       -0.78038       -0.48976
O          2.69353       -1.87013       -0.06777
C          3.45294       -2.37761       -1.17333
C          4.80671       -2.84316       -0.66940
H          5.33844       -2.04205       -0.14118
H          5.43686       -3.19361       -1.50090
H          4.66922       -3.67886        0.03217
C          2.67293       -3.56149       -1.73438
H          3.21867       -4.06699       -2.54421
H          2.50107       -4.28493       -0.92426
H          1.69348       -3.24651       -2.11932
C          3.49893       -1.14931       -2.15329
O          2.34797       -0.39767       -1.75683
C          4.71363       -0.25458       -1.94718
H          4.80540        0.03839       -0.89434
H          5.64486       -0.74370       -2.26792
H          4.58129        0.66363       -2.53689
C          3.35893       -1.50399       -3.62357
H          2.41010       -2.01726       -3.82622
H          3.37774       -0.58260       -4.22370
H          4.18790       -2.14637       -3.95747
B          0.28329        1.48109       -1.00985
O          0.80431        2.71684       -0.68289
C          0.96038        3.48077       -1.87878
C          0.73043        4.94629       -1.56178
H         -0.23186        5.09629       -1.05515
H          1.52644        5.30605       -0.89326
H          0.75028        5.55727       -2.47741
C          2.38674        3.24830       -2.36710
H          2.62889        3.85730       -3.25079
H          3.07840        3.51085       -1.55378
H          2.53920        2.18459       -2.60038
C         -0.11233        2.83597       -2.81690
O         -0.14265        1.48761       -2.33421
C          0.25152        2.82490       -4.28970
H          1.17617        2.26076       -4.46830
H         -0.55600        2.35101       -4.86767
H          0.38321        3.84961       -4.66960
C         -1.50661        3.41849       -2.61279
H         -1.77266        3.44335       -1.54608
H         -1.59082        4.43471       -3.02532
H         -2.23680        2.77339       -3.12253
B          1.77828        0.37787        1.34265
O          1.94464       -0.17145        2.61505
C          2.81324        0.69032        3.35234
C          1.93915        1.71404        4.07278
H          1.37033        2.32578        3.35703
H          1.21609        1.18201        4.70840
H          2.53125        2.38409        4.71273
C          3.58964       -0.13775        4.35905
H          2.89929       -0.54376        5.11320
H          4.34010        0.47554        4.88081
H          4.09451       -0.98309        3.87479
C          3.67445        1.33105        2.21209
O          2.77097        1.31438        1.10354
C          4.10403        2.76508        2.46315
H          4.73032        2.83867        3.36556
H          4.69230        3.12622        1.60700
H          3.23674        3.42772        2.57519
C          4.88139        0.47469        1.84881
H          4.57234       -0.55846        1.63505
H          5.35322        0.89123        0.94762
H          5.63277        0.46665        2.65141
H         -1.55537       -5.06250        3.40905
H         -1.45779       -4.51626       -3.53661
C         -1.99959        0.45367        0.40195
C         -3.00380       -0.47108        0.10272
C         -2.44999        1.73514        0.81683
C         -4.38841       -0.22032        0.17528
H         -2.71495       -1.47125       -0.21168
C         -3.84361        2.00085        0.88782
C         -1.69292        2.90114        1.20550
C         -4.80928        1.04641        0.57209
C         -5.42768       -1.29250       -0.16941
S         -4.16935        3.63194        1.40772
C         -2.47111        3.96452        1.53826
H         -0.60492        2.94389        1.19122
H         -5.86984        1.29934        0.64080
H         -2.14057        4.95286        1.85648
C         -4.78221       -2.61894       -0.57893
H         -5.56643       -3.35502       -0.81542
H         -4.14770       -2.50694       -1.47149
H         -4.16261       -3.03735        0.22954
C         -6.31557       -1.55197        1.05597
H         -6.84252       -0.64078        1.37506
H         -7.07491       -2.31935        0.83209
H         -5.71120       -1.90210        1.90706
C         -6.29461       -0.80238       -1.33794
H         -7.05340       -1.55668       -1.60418
H         -6.82121        0.13047       -1.08836
H         -5.67495       -0.60708       -2.22671
