108
Int2_comp23_0_Sub14.log	Energy: -1462014.5510416
N          0.44428        1.86207       -1.81846
C          0.54542        3.11022       -1.33197
C          0.88252        4.18595       -2.16071
C          1.10792        3.95604       -3.51089
C          0.99398        2.65728       -3.99997
C          0.66278        1.63805       -3.11511
H          0.59262        0.59772       -3.43441
H          1.15969        2.42794       -5.05370
H          0.96214        5.19527       -1.75859
C          0.26572        3.26510        0.10729
N         -0.10001        2.14853        0.77246
C         -0.41132        2.21607        2.07415
C         -0.36034        3.41049        2.78061
C          0.02717        4.57124        2.11628
C          0.34190        4.49563        0.76699
H          0.64263        5.39077        0.22467
H         -0.62852        3.41863        3.83789
H         -0.72023        1.27351        2.53383
Ir        -0.15406        0.30039       -0.32548
H         -0.36042       -1.01606       -1.19659
B          1.72069        0.24775        0.69697
O          2.90364        0.85407        0.31386
C          3.69258        1.11222        1.48379
C          5.15668        0.88922        1.15315
H          5.33336       -0.11882        0.75761
H          5.78626        1.02996        2.04493
H          5.47659        1.61352        0.38984
C          3.45984        2.57123        1.85932
H          4.08904        2.88369        2.70533
H          3.70374        3.20114        0.99154
H          2.40846        2.75031        2.12297
C          3.09087        0.10487        2.52636
O          1.75907       -0.07845        2.03653
C          3.76593       -1.26031        2.50113
H          3.77840       -1.66546        1.48122
H          4.79203       -1.22243        2.89487
H          3.17961       -1.95494        3.11931
C          3.01679        0.63050        3.94847
H          2.39586        1.53351        4.01165
H          2.56564       -0.13427        4.59731
H          4.01982        0.86126        4.33859
B         -0.85159       -0.97314        1.09722
O         -0.91908       -2.34700        0.98761
C         -1.30934       -2.88868        2.24950
C         -2.14410       -4.13278        2.01249
H         -2.97421       -3.92490        1.32490
H         -1.51708       -4.91537        1.56013
H         -2.55073       -4.52373        2.95795
C         -0.02598       -3.22756        3.00127
H         -0.22600       -3.72081        3.96413
H          0.57615       -3.90235        2.37589
H          0.56699       -2.31706        3.17105
C         -2.08399       -1.68962        2.88864
O         -1.40738       -0.56904        2.30548
C         -1.98352       -1.59495        4.39916
H         -0.94158       -1.47537        4.72367
H         -2.55509       -0.72441        4.75427
H         -2.40253       -2.49333        4.87782
C         -3.53960       -1.62191        2.43981
H         -3.61834       -1.71773        1.34721
H         -4.15015       -2.40491        2.91343
H         -3.95105       -0.64065        2.71720
B          1.27311       -1.06112       -0.99109
O          1.74645       -0.98798       -2.29961
C          2.81014       -1.92978       -2.46119
C          2.75125       -2.50220       -3.86568
H          1.75929       -2.91358       -4.09133
H          2.96423       -1.70901       -4.59750
H          3.50191       -3.29626       -3.99778
C          4.11743       -1.17368       -2.25235
H          4.16380       -0.34853       -2.97788
H          4.99600       -1.81802       -2.40229
H          4.15279       -0.72800       -1.24918
C          2.50656       -2.96347       -1.32174
O          1.83487       -2.15509       -0.35102
C          1.52998       -4.05548       -1.74346
H          1.99071       -4.77706       -2.43371
H          1.19499       -4.59039       -0.84356
H          0.63980       -3.62600       -2.22157
C          3.73618       -3.58796       -0.68913
H          4.41347       -2.82984       -0.27684
H          3.42959       -4.25283        0.13137
H          4.29194       -4.18688       -1.42660
H          1.36767        4.78388       -4.17416
H          0.08093        5.52744        2.64107
C         -2.25071        0.62962       -0.68309
C         -2.81386        1.87637       -0.36706
C         -3.21682       -0.34846       -1.04730
C         -4.19942        2.12473       -0.31016
H         -2.17841        2.72464       -0.11132
C         -4.59360        0.01012       -0.90474
C         -3.21809       -1.72797       -1.50945
N         -5.10368        1.17858       -0.54220
C         -4.72155        3.49192        0.02948
N         -5.35858       -1.08229       -1.20218
C         -4.53553       -2.11480       -1.57723
C         -2.10148       -2.58253       -2.02219
H         -6.36737       -1.08289       -1.17513
H         -4.94475       -3.06997       -1.90279
C         -1.55374       -2.08134       -3.35644
H         -2.48629       -3.60834       -2.15103
H         -1.30442       -2.66341       -1.26869
H         -0.73678       -2.71933       -3.72946
H         -1.16250       -1.05795       -3.25730
H         -2.34653       -2.06045       -4.11970
H         -5.07264        4.01001       -0.87892
H         -3.95083        4.11899        0.50028
H         -5.58457        3.41147        0.70626
