99
Int2_comp75_7_Sub18.log	Energy: -1678772.7037165
N         -0.35458        2.25915        1.34336
C         -0.45885        3.35824        0.57975
C         -0.62851        4.62462        1.14952
C         -0.67783        4.74275        2.53210
C         -0.56159        3.59412        3.30960
C         -0.40535        2.36918        2.67055
H         -0.34654        1.43010        3.22153
H         -0.59304        3.63778        4.39932
H         -0.71316        5.51192        0.52313
C         -0.36692        3.14118       -0.87640
N         -0.14178        1.87429       -1.28363
C         -0.02695        1.60039       -2.59024
C         -0.14180        2.58768       -3.56053
C         -0.38007        3.90002       -3.16213
C         -0.49039        4.17776       -1.80681
H         -0.67513        5.19702       -1.47087
H         -0.04011        2.31852       -4.61273
H          0.16933        0.55282       -2.83565
Ir         0.02995        0.34179        0.21899
H          0.40217       -0.71162        1.36029
B         -1.98165        0.07867       -0.45649
O         -3.10711        0.76982       -0.05255
C         -4.03105        0.83405       -1.14739
C         -5.44377        0.70435       -0.60839
H         -5.56806       -0.21277       -0.01924
H         -6.17868        0.69749       -1.42759
H         -5.66720        1.56007        0.04530
C         -3.84594        2.20137       -1.79672
H         -4.56965        2.37360       -2.60645
H         -3.98833        2.97682       -1.03012
H         -2.83281        2.31348       -2.20693
C         -3.56173       -0.35297       -2.06571
O         -2.19322       -0.51525       -1.68263
C         -4.27059       -1.66725       -1.76842
H         -4.21380       -1.90600       -0.69967
H         -5.32582       -1.64588       -2.07717
H         -3.76308       -2.47376       -2.31676
C         -3.61302       -0.06234       -3.55572
H         -2.98287        0.79606       -3.82179
H         -3.24082       -0.93661       -4.10930
H         -4.64361        0.13867       -3.88556
B          0.53413       -1.27056       -0.90964
O          0.75335       -2.54511       -0.42642
C          0.88510       -3.43321       -1.53727
C          1.84377       -4.54886       -1.16745
H          2.79593       -4.14815       -0.79590
H          1.40051       -5.16454       -0.37093
H          2.04452       -5.20080       -2.03154
C         -0.50690       -3.98661       -1.82709
H         -0.49557       -4.74311       -2.62581
H         -0.89632       -4.44602       -0.90745
H         -1.19176       -3.17186       -2.10448
C          1.39784       -2.47156       -2.65895
O          0.78706       -1.23305       -2.27515
C          0.94643       -2.82942       -4.06221
H         -0.14811       -2.81478       -4.14406
H          1.35297       -2.10166       -4.78042
H          1.31040       -3.82776       -4.34947
C          2.90744       -2.26307       -2.61497
H          3.24230       -2.01818       -1.59649
H          3.45459       -3.15020       -2.96624
H          3.16676       -1.41500       -3.26528
B         -1.26626       -0.78429        1.40276
O         -1.62312       -0.31802        2.66900
C         -1.99526       -1.44850        3.46054
C         -0.73494       -1.95209        4.15933
H          0.01935       -2.27998        3.42886
H         -0.29992       -1.13057        4.74721
H         -0.94816       -2.78804        4.84108
C         -3.02691       -1.01457        4.48463
H         -2.56556       -0.31975        5.20198
H         -3.41153       -1.87810        5.04841
H         -3.86877       -0.49721        4.00753
C         -2.51703       -2.44558        2.37160
O         -1.74859       -2.07071        1.22473
C         -2.25724       -3.91135        2.66836
H         -2.75663       -4.22183        3.59903
H         -2.65143       -4.52664        1.84639
H         -1.18283       -4.11674        2.75360
C         -3.98883       -2.22603        2.04407
H         -4.17724       -1.17189        1.79488
H         -4.25417       -2.84290        1.17390
H         -4.64105       -2.52024        2.87881
H         -0.80373        5.72332        2.99618
H         -0.47729        4.70150       -3.89753
C          2.09893        0.76190        0.20540
C          2.74364        1.86543       -0.26778
C          3.18855       -0.08675        0.66316
O          4.11481        1.80907       -0.15349
H          2.38797        2.78430       -0.72940
C          3.26312       -1.36400        1.23822
C          4.38079        0.62062        0.41072
C          4.51537       -1.88703        1.54085
H          2.35289       -1.94130        1.40812
C          5.63588        0.09919        0.71521
C          5.69502       -1.16802        1.28625
H          4.59407       -2.88260        1.98439
Cl         7.07044        1.00925        0.38302
H          6.67135       -1.59091        1.52856
