96
Int2_comp177_6_Sub10.log	Energy: -3266454.9765196
N         -0.75624       -1.85852        1.44209
C         -1.41651       -2.79216        0.73872
C         -2.17410       -3.77981        1.37601
C         -2.23389       -3.79438        2.76273
C         -1.52490       -2.83359        3.47891
C         -0.79775       -1.88068        2.77472
H         -0.20618       -1.10874        3.27033
H         -1.53662       -2.81114        4.56969
H         -2.73673       -4.50988        0.79583
C         -1.28868       -2.70984       -0.72843
N         -0.65727       -1.62562       -1.22294
C         -0.50047       -1.49124       -2.54469
C         -0.96271       -2.44434       -3.44322
C         -1.60549       -3.57553       -2.95053
C         -1.76633       -3.70946       -1.57885
H         -2.26436       -4.58625       -1.16885
H         -0.81814       -2.28686       -4.51287
H         -0.00428       -0.57580       -2.86991
Ir        -0.04255       -0.12015        0.18658
H          0.17853        1.08169        1.21993
B          1.82675       -0.99562       -0.37066
O          2.43450       -2.10058        0.18702
C          3.19242       -2.77105       -0.82966
C          4.45688       -3.33727       -0.21081
H          5.04448       -2.55929        0.29230
H          5.08844       -3.81521       -0.97496
H          4.18989       -4.09789        0.53719
C          2.31539       -3.90451       -1.35191
H          2.84205       -4.52420       -2.09194
H          2.02574       -4.54274       -0.50477
H          1.39498       -3.51812       -1.81183
C          3.42673       -1.63431       -1.88863
O          2.33407       -0.74505       -1.62874
C          4.71106       -0.84938       -1.65990
H          4.76588       -0.48720       -0.62606
H          5.60482       -1.45168       -1.87798
H          4.71389        0.02871       -2.32113
C          3.34477       -2.08816       -3.33550
H          2.36362       -2.52195       -3.56766
H          3.49764       -1.22404       -3.99855
H          4.12308       -2.83287       -3.56103
B          0.40544        1.39845       -1.09643
O          1.06538        2.56789       -0.78944
C          1.42804        3.21903       -2.00563
C          1.40692        4.72039       -1.78878
H          0.44465        5.05122       -1.37725
H          2.19397        4.99700       -1.07207
H          1.59582        5.25937       -2.72998
C          2.83521        2.74667       -2.35842
H          3.23432        3.25512       -3.24872
H          3.49391        2.95563       -1.50339
H          2.84173        1.65938       -2.52060
C          0.34389        2.68157       -2.99787
O          0.05468        1.39310       -2.44305
C          0.81618        2.50792       -4.42924
H          1.65256        1.79953       -4.48954
H         -0.00679        2.11926       -5.04757
H          1.13718        3.47001       -4.85707
C         -0.94975        3.48723       -2.95736
H         -1.28806        3.63135       -1.92094
H         -0.83629        4.47231       -3.43339
H         -1.73051        2.92877       -3.49407
B          1.60978        0.30522        1.38560
O          1.63992       -0.17717        2.69444
C          2.54491        0.64096        3.44005
C          1.73380        1.78703        4.03899
H          1.27674        2.40365        3.25099
H          0.92168        1.36721        4.65052
H          2.34862        2.43497        4.68028
C          3.17130       -0.19361        4.54106
H          2.40086       -0.47952        5.27243
H          3.94894        0.37515        5.07322
H          3.61463       -1.11389        4.14044
C          3.53388        1.12176        2.32543
O          2.70197        1.12278        1.16141
C          4.08836        2.52087        2.52239
H          4.66252        2.59075        3.45907
H          4.76147        2.76841        1.68866
H          3.28643        3.26948        2.53763
C          4.66823        0.13183        2.09140
H          4.27137       -0.87827        1.91619
H          5.23199        0.44405        1.20090
H          5.36585        0.10277        2.94063
H         -2.83279       -4.54850        3.27797
H         -1.98168       -4.34722       -3.62552
C         -2.10442        0.43383        0.22657
N         -2.95704       -0.55042       -0.07943
C         -2.69719        1.67003        0.59757
C         -4.28095       -0.42268       -0.06400
C         -4.07687        1.85140        0.61348
Br        -1.65096        3.15020        1.12038
C         -4.90193        0.78367        0.27062
C         -5.02592       -1.61242       -0.38836
H         -4.51556        2.80924        0.89580
Cl        -6.61685        0.94898        0.27722
N         -5.56209       -2.60806       -0.64284
