101
Int2_comp173_5_Sub15.log	Energy: -1705407.9280737
N          0.09007        2.06637        1.54124
C         -0.04960        3.25187        0.92678
C         -0.01873        4.45126        1.64642
C          0.17173        4.41028        3.02086
C          0.32704        3.17375        3.64122
C          0.27701        2.02473        2.86055
H          0.35947        1.02677        3.29106
H          0.48500        3.09183        4.71768
H         -0.12573        5.40889        1.13820
C         -0.20042        3.20351       -0.53924
N         -0.06673        1.99014       -1.11660
C         -0.13388        1.87534       -2.45030
C         -0.36067        2.97101       -3.27298
C         -0.52729        4.22611       -2.69442
C         -0.44249        4.34167       -1.31413
H         -0.56597        5.31288       -0.83722
H         -0.40273        2.82874       -4.35367
H          0.01554        0.86691       -2.84334
Ir         0.16579        0.27683        0.16913
H          0.52428       -0.97345        1.09423
B         -1.90058        0.20555       -0.34282
O         -2.96465        0.84297        0.26711
C         -3.99918        1.05154       -0.70405
C         -5.35072        0.87952       -0.03643
H         -5.43901       -0.10016        0.44887
H         -6.16600        0.98373       -0.76853
H         -5.48145        1.65346        0.73402
C         -3.84419        2.48271       -1.20732
H         -4.64636        2.76351       -1.90516
H         -3.87717        3.16390       -0.34469
H         -2.87831        2.62309       -1.71222
C         -3.66194       -0.02254       -1.79751
O         -2.25537       -0.20990       -1.61198
C         -4.32866       -1.36897       -1.54865
H         -4.11605       -1.72121       -0.53149
H         -5.41713       -1.32556       -1.69929
H         -3.90828       -2.10614       -2.24698
C         -3.90698        0.42710       -3.22696
H         -3.30770        1.31133       -3.47997
H         -3.62449       -0.38091       -3.91753
H         -4.96991        0.66049       -3.39181
B          0.40360       -1.19142       -1.21888
O          0.26121       -2.54598       -1.03269
C          0.38790       -3.19963       -2.29442
C          1.05584       -4.54549       -2.08430
H          1.99392       -4.43671       -1.52518
H          0.38944       -5.19819       -1.50145
H          1.26593       -5.03945       -3.04565
C         -1.02165       -3.37602       -2.85016
H         -1.02920       -3.94241       -3.79337
H         -1.62173       -3.91959       -2.10612
H         -1.49392       -2.39554       -3.00608
C          1.23312       -2.16832       -3.11248
O          0.82317       -0.92948       -2.52142
C          0.93690       -2.13092       -4.59966
H         -0.11345       -1.87628       -4.79286
H          1.56855       -1.37133       -5.08411
H          1.15543       -3.10281       -5.06810
C          2.73242       -2.30550       -2.86804
H          2.95436       -2.35371       -1.79215
H          3.14755       -3.19893       -3.35748
H          3.23809       -1.41700       -3.27309
B         -1.04595       -0.86807        1.40570
O         -1.19349       -0.48872        2.74078
C         -1.61141       -1.63999        3.47714
C         -0.35212       -2.34551        3.97392
H          0.28017       -2.66945        3.13440
H          0.23519       -1.64022        4.58036
H         -0.58894       -3.22025        4.59676
C         -2.46047       -1.19088        4.65159
H         -1.83957       -0.62145        5.35909
H         -2.88068       -2.05496        5.18854
H         -3.28196       -0.54111        4.32454
C         -2.37192       -2.46242        2.38234
O         -1.69773       -2.06859        1.18358
C         -2.26121       -3.96952        2.52287
H         -2.69003       -4.31075        3.47773
H         -2.81390       -4.45448        1.70515
H         -1.21664       -4.29937        2.46105
C         -3.83301       -2.04695        2.26146
H         -3.91584       -0.95993        2.12156
H         -4.27401       -2.54426        1.38584
H         -4.41511       -2.34360        3.14581
H          0.20539        5.33592        3.59948
H         -0.71678        5.10797       -3.31003
C          2.30682        0.51961        0.10214
C          2.85200        1.70721       -0.41771
C          3.24763       -0.43600        0.52724
C          4.21969        1.90043       -0.51204
H          2.22571        2.51956       -0.78718
C          4.64674       -0.24807        0.46579
Cl         2.72372       -2.01493        1.09428
C          5.12650        0.95357       -0.07222
F          4.68236        3.04939       -1.02524
N          5.56264       -1.22800        0.86878
H          6.19848        1.15257       -0.13119
H          6.47975       -1.01041        0.49450
C          5.65820       -1.57278        2.27286
H          6.41523       -2.36123        2.39778
H          4.70235       -1.97368        2.63357
H          5.93735       -0.71641        2.91932
