108
Int2_comp44_4_Sub20.log	Energy: -1417358.0061146
N         -0.64148        2.24605        1.27134
C         -0.96597        3.24488        0.43450
C         -1.50155        4.44606        0.91082
C         -1.67685        4.61300        2.27813
C         -1.30905        3.57886        3.13440
C         -0.79959        2.40800        2.58455
H         -0.52977        1.55150        3.20159
H         -1.41927        3.66791        4.21622
H         -1.77470        5.24614        0.22367
C         -0.67465        3.00508       -0.99035
N         -0.15751        1.79859       -1.30215
C          0.17713        1.52302       -2.57026
C          0.01107        2.44910       -3.59216
C         -0.52495        3.69859       -3.29087
C         -0.87030        3.97637       -1.97625
H         -1.28387        4.94877       -1.71307
H          0.30248        2.18198       -4.60892
H          0.58162        0.52093       -2.74240
Ir         0.06379        0.34760        0.27430
H          0.43148       -0.62976        1.48262
B         -1.85578       -0.13766       -0.54510
O         -3.05368        0.50819       -0.30187
C         -3.89735        0.38691       -1.45429
C         -5.32852        0.17756       -0.99314
H         -5.41509       -0.69013       -0.32732
H         -6.00227        0.03031       -1.85078
H         -5.66792        1.06468       -0.43867
C         -3.78844        1.69972       -2.22109
H         -4.46859        1.72867       -3.08466
H         -4.04843        2.52608       -1.54354
H         -2.76449        1.86698       -2.58081
C         -3.26424       -0.83193       -2.22442
O         -1.92990       -0.86220       -1.71516
C         -3.90906       -2.16852       -1.88344
H         -3.93690       -2.32197       -0.79849
H         -4.93019       -2.24776       -2.28394
H         -3.30062       -2.97461       -2.31798
C         -3.19608       -0.66472       -3.73332
H         -2.60268        0.21425       -4.01580
H         -2.71343       -1.54931       -4.17364
H         -4.20208       -0.56981       -4.16950
B          0.79358       -1.24833       -0.74560
O          1.16444       -2.45335       -0.17794
C          1.39128       -3.39390       -1.22708
C          2.46774       -4.37096       -0.79392
H          3.37531       -3.84632       -0.46737
H          2.10040       -4.97003        0.05215
H          2.73083       -5.05896       -1.61215
C          0.06851       -4.11767       -1.46333
H          0.15978       -4.91875       -2.21195
H         -0.26149       -4.55583       -0.51075
H         -0.70532       -3.40387       -1.78164
C          1.79036       -2.46226       -2.41945
O          1.05982       -1.27142       -2.11025
C          1.36095       -2.96027       -3.78714
H          0.26939       -3.05782       -3.84790
H          1.68302       -2.24700       -4.56066
H          1.81883       -3.93543       -4.01365
C          3.27117       -2.09837       -2.42128
H          3.58176       -1.72203       -1.43579
H          3.90519       -2.95253       -2.70147
H          3.43652       -1.29089       -3.14975
B         -1.21928       -0.83719        1.40704
O         -1.73721       -0.34364        2.60663
C         -2.05567       -1.46016        3.43749
C         -0.81751       -1.77942        4.27176
H          0.03023       -2.06150        3.63016
H         -0.52840       -0.88189        4.83820
H         -1.00137       -2.59362        4.98770
C         -3.21526       -1.08576        4.34158
H         -2.89645       -0.30112        5.04371
H         -3.55377       -1.95172        4.93073
H         -4.06193       -0.69568        3.76272
C         -2.36846       -2.57147        2.37879
O         -1.55016       -2.17851        1.27468
C         -1.97795       -3.97890        2.79301
H         -2.52026       -4.29055        3.69901
H         -2.22935       -4.68121        1.98475
H         -0.89921       -4.05531        2.97816
C         -3.82215       -2.54225        1.92300
H         -4.10360       -1.53232        1.59161
H         -3.94205       -3.23356        1.07710
H         -4.50737       -2.86125        2.72147
H         -2.09216        5.54401        2.67002
H         -0.67070        4.45023       -4.06958
C          2.12141        0.84705        0.42330
C          2.82382        1.99235        0.13986
C          3.14676       -0.09705        0.81463
O          4.17070        1.79963        0.31868
C          2.47000        3.36776       -0.30522
C          4.35723        0.52433        0.72833
H          2.97632       -1.13009        1.10955
H          3.33403        4.03037       -0.15574
H          1.63105        3.77829        0.27382
H          2.19724        3.41803       -1.37345
C          5.77534        0.09064        0.96202
C          6.56699        0.23638       -0.34568
H          7.62049       -0.05273       -0.19938
H          6.13843       -0.40269       -1.13326
H          6.53889        1.27654       -0.70210
C          6.40980        0.97324        2.04571
H          5.86949        0.86826        2.99903
H          7.46289        0.69317        2.21127
H          6.37511        2.03266        1.75194
C          5.78718       -1.36985        1.41044
H          6.82056       -1.70753        1.58526
H          5.22024       -1.50405        2.34405
H          5.33981       -2.02394        0.64609
