99
Int2_comp69_6_Sub15.log	Energy: -1613943.8745712
N          1.27161       -2.02859        0.53840
C          1.62384       -2.15320        1.82808
C          2.36696       -3.24993        2.27316
C          2.74442       -4.22582        1.35818
C          2.36276       -4.08569        0.02861
C          1.62076       -2.96730       -0.34054
H          1.28061       -2.80581       -1.36362
H          2.63615       -4.82381       -0.72664
H          2.66072       -3.33876        3.31849
C          1.17708       -1.07122        2.72764
N          0.55386       -0.02271        2.15170
C          0.10573        0.98984        2.90525
C          0.26075        1.00292        4.28562
C          0.89919       -0.06961        4.90005
C          1.36100       -1.11523        4.11232
H          1.85561       -1.96939        4.57234
H         -0.11749        1.85001        4.85937
H         -0.37962        1.80336        2.35903
Ir         0.34496       -0.03389        0.00589
H          0.43810        0.04277       -1.58685
B         -1.63287       -0.55241        0.63206
O         -2.10626       -1.81006        0.94475
C         -3.12776       -1.68333        1.94268
C         -4.20703       -2.71672        1.67808
H         -4.60962       -2.62762        0.66135
H         -5.03581       -2.61256        2.39471
H         -3.78377       -3.72580        1.78750
C         -2.46121       -1.95810        3.28683
H         -3.18574       -1.95510        4.11397
H         -1.98226       -2.94704        3.24531
H         -1.68160       -1.21448        3.50416
C         -3.58737       -0.18952        1.77649
O         -2.43703        0.42122        1.18389
C         -4.74159       -0.01624        0.79887
H         -4.51741       -0.50507       -0.15693
H         -5.68365       -0.41994        1.19737
H         -4.87846        1.05649        0.60056
C         -3.89726        0.52875        3.07835
H         -3.02574        0.55037        3.74532
H         -4.18061        1.56893        2.86114
H         -4.73527        0.04857        3.60611
B         -0.31812        1.85535       -0.34461
O         -0.56588        2.40309       -1.58513
C         -1.29903        3.61411       -1.39465
C         -0.96873        4.57891       -2.51689
H          0.11461        4.72755       -2.61076
H         -1.33726        4.17190       -3.46975
H         -1.44976        5.55547       -2.35239
C         -2.77947        3.24369       -1.42015
H         -3.42947        4.12889       -1.35422
H         -2.98866        2.71590       -2.36111
H         -3.01647        2.55296       -0.59771
C         -0.81591        4.06208        0.02407
O         -0.55131        2.79924        0.64788
C         -1.85088        4.80730        0.84558
H         -2.73644        4.18432        1.02576
H         -1.42338        5.08390        1.82113
H         -2.16447        5.73254        0.33825
C          0.49782        4.83341       -0.01429
H          1.24556        4.30242       -0.62050
H          0.36542        5.84887       -0.41586
H          0.89424        4.91075        1.00859
B         -0.95670       -0.81416       -1.42613
O         -0.69206       -2.06387       -1.97437
C         -1.31529       -2.10322       -3.26366
C         -0.31252       -1.55795       -4.27557
H         -0.08032       -0.50185       -4.07499
H          0.63168       -2.11356       -4.19003
H         -0.68676       -1.64515       -5.30612
C         -1.67220       -3.54027       -3.59092
H         -0.75036       -4.12472       -3.72663
H         -2.25101       -3.59891       -4.52529
H         -2.25240       -4.00314       -2.78240
C         -2.53493       -1.14514       -3.05083
O         -2.02963       -0.22652       -2.07290
C         -2.95308       -0.35980       -4.28001
H         -3.25961       -1.03509       -5.09354
H         -3.80784        0.28615       -4.03065
H         -2.13869        0.28206       -4.63810
C         -3.73611       -1.86047       -2.44540
H         -3.44385       -2.40922       -1.53855
H         -4.49525       -1.11337       -2.17319
H         -4.19248       -2.56268       -3.15775
H          3.33312       -5.08598        1.68465
H          1.03645       -0.09566        5.98323
C          2.31333        0.71375       -0.05666
S          2.89974        1.89020        1.04868
C          3.34464        0.38394       -0.93533
C          4.49306        1.91581        0.38245
C          4.60022        1.06731       -0.69328
C          3.12629       -0.52475       -2.00550
H          5.27674        2.54464        0.80282
N          5.73703        0.92610       -1.48022
N          2.93811       -1.28097       -2.86943
H          6.46366        1.56878       -1.18810
C          6.25970       -0.39139       -1.76914
H          7.13915       -0.29187       -2.42165
H          5.52041       -0.99245       -2.31513
H          6.55984       -0.95932       -0.86502
