100
Int2_comp159_0_Sub6.log	Energy: -1653233.0205810
N          1.33360       -1.86178       -0.82498
C          2.23572       -2.27789        0.07916
C          3.16434       -3.27474       -0.23887
C          3.14097       -3.84490       -1.50310
C          2.18174       -3.41896       -2.41971
C          1.29629       -2.42060       -2.03591
H          0.50913       -2.05226       -2.69629
H          2.11979       -3.84599       -3.42178
H          3.91279       -3.58657        0.48785
C          2.17246       -1.63381        1.40356
N          1.29043       -0.62472        1.55041
C          1.18132       -0.01115        2.73176
C          1.94658       -0.37227        3.83182
C          2.85281       -1.42006        3.70184
C          2.95940       -2.05924        2.47673
H          3.65696       -2.88510        2.34966
H          1.82185        0.16565        4.77261
H          0.43983        0.78855        2.77700
Ir         0.26136       -0.01129       -0.20980
H         -0.09598        0.61248       -1.63821
B         -1.39493       -1.02411        0.71421
O         -2.76045       -0.79751        0.74642
C         -3.37980       -1.79422        1.57265
C         -4.54457       -1.15696        2.30621
H         -4.22822       -0.25727        2.84934
H         -4.99564       -1.86288        3.02036
H         -5.31872       -0.86036        1.58336
C         -3.87008       -2.91983        0.66793
H         -4.36193       -3.71611        1.24480
H         -4.60354       -2.52394       -0.04797
H         -3.03680       -3.35534        0.09771
C         -2.18964       -2.24234        2.47737
O         -1.07228       -2.03403        1.60668
C         -1.99583       -1.32904        3.68416
H         -1.97504       -0.27383        3.37330
H         -2.78639       -1.46890        4.43597
H         -1.02808       -1.56409        4.15099
C         -2.21172       -3.69540        2.91046
H         -2.18631       -4.37237        2.04710
H         -1.32706       -3.90535        3.52928
H         -3.10820       -3.91610        3.50999
B         -0.63891        1.65955        0.54418
O         -0.97110        2.82137       -0.12510
C         -1.88323        3.57401        0.67769
C         -1.68232        5.05197        0.40201
H         -0.63161        5.34546        0.52351
H         -1.97676        5.27465       -0.63385
H         -2.30291        5.66602        1.07263
C         -3.29362        3.14299        0.28816
H         -4.06029        3.72968        0.81572
H         -3.41451        3.28982       -0.79393
H         -3.44394        2.07275        0.48979
C         -1.49254        3.11234        2.11894
O         -1.04403        1.77408        1.87941
C         -2.63817        3.07457        3.11264
H         -3.42555        2.38528        2.78171
H         -2.27201        2.72974        4.09133
H         -3.07706        4.07503        3.24702
C         -0.31400        3.89376        2.68961
H          0.51744        3.92802        1.97044
H         -0.59334        4.92384        2.95480
H          0.04308        3.39176        3.60138
B         -1.39491       -0.21377       -1.47082
O         -1.58129       -1.34730       -2.25754
C         -2.51273       -1.03151       -3.29827
C         -1.69250       -0.69616       -4.54060
H         -1.03376        0.16606       -4.35961
H         -1.05959       -1.55957       -4.79479
H         -2.32821       -0.47246       -5.40919
C         -3.38155       -2.24814       -3.55860
H         -2.76015       -3.07085       -3.94204
H         -4.15679       -2.02720       -4.30775
H         -3.86803       -2.59321       -2.63771
C         -3.27880        0.21459       -2.71344
O         -2.34160        0.74186       -1.77885
C         -3.59380        1.29494       -3.73588
H         -4.25231        0.91023       -4.52962
H         -4.11229        2.12613       -3.23644
H         -2.68162        1.69784       -4.19361
C         -4.54562       -0.15066       -1.95124
H         -4.32568       -0.88995       -1.17437
H         -4.92226        0.75107       -1.44761
H         -5.33186       -0.53216       -2.61876
H          3.86624       -4.61634       -1.77091
H          3.47006       -1.73793        4.54491
C          2.14271        0.91816       -0.69337
N          3.22700        0.35831       -0.14516
C          2.37963        1.98535       -1.60834
C          4.42995        0.79763       -0.40461
N          3.61352        2.43571       -1.84439
C          1.28296        2.63761       -2.39174
Cl         5.76835       -0.04989        0.35000
C          4.67062        1.88027       -1.25333
C          6.03425        2.42519       -1.53363
H          6.52969        2.75836       -0.60815
H          5.94273        3.27342       -2.22330
H          6.68507        1.65881       -1.98337
H          1.68731        3.51133       -2.91813
H          0.43911        2.93109       -1.75274
H          0.88513        1.93846       -3.14748
