102
Int2_comp175_1_Sub23.log	Energy: -1701017.0242452
N          0.01953       -2.53660        0.24901
C          0.43344       -2.90551        1.47265
C          0.61896       -4.25125        1.80203
C          0.36111       -5.22329        0.84305
C         -0.08619       -4.82612       -0.41210
C         -0.24659       -3.46751       -0.66757
H         -0.60676       -3.09591       -1.62653
H         -0.30593       -5.55059       -1.19748
H          0.96691       -4.54099        2.79290
C          0.65390       -1.80984        2.43526
N          0.48600       -0.55425        1.97114
C          0.63112        0.48921        2.79947
C          0.96065        0.32818        4.13910
C          1.14445       -0.95876        4.63538
C          0.98833       -2.03564        3.77390
H          1.11733       -3.05242        4.14168
H          1.07067        1.20871        4.77352
H          0.48125        1.47299        2.34698
Ir         0.01841       -0.30038       -0.11718
H         -0.07511       -0.14888       -1.70401
B         -1.88480        0.04831        0.79625
O         -2.83287       -0.88307        1.16920
C         -3.54153       -0.39004        2.31334
C         -4.99737       -0.80529        2.20875
H         -5.44600       -0.46627        1.26669
H         -5.58459       -0.39658        3.04509
H         -5.06949       -1.90213        2.24278
C         -2.90125       -1.03894        3.53643
H         -3.42801       -0.77668        4.46538
H         -2.93504       -2.13095        3.41178
H         -1.84742       -0.74389        3.63843
C         -3.28871        1.15900        2.23312
O         -2.07551        1.23264        1.47832
C         -4.35429        1.90647        1.44305
H         -4.50180        1.44551        0.45886
H         -5.31649        1.93755        1.97455
H         -4.01312        2.93870        1.27906
C         -3.06521        1.83635        3.57400
H         -2.20115        1.41244        4.10181
H         -2.86989        2.90661        3.41304
H         -3.95323        1.74359        4.21759
B          0.23442        1.70469       -0.34021
O          0.05149        2.41839       -1.50593
C          0.03659        3.80802       -1.17733
C          0.56454        4.60468       -2.35461
H          1.54642        4.23660       -2.67867
H         -0.12902        4.50765       -3.20257
H          0.65001        5.67294       -2.10228
C         -1.41498        4.17736       -0.88347
H         -1.53983        5.25404       -0.69465
H         -2.02662        3.89337       -1.75139
H         -1.78789        3.60806       -0.01934
C          0.93626        3.84364        0.10097
O          0.66476        2.55762        0.67347
C          0.57464        4.91735        1.10922
H         -0.45134        4.78701        1.47702
H          1.25685        4.86342        1.97099
H          0.66759        5.92056        0.66572
C          2.42437        3.89168       -0.22691
H          2.68542        3.12585       -0.97146
H          2.72725        4.87774       -0.60877
H          3.00401        3.67993        0.68360
B         -1.68121       -0.31975       -1.32953
O         -2.07610       -1.50992       -1.93284
C         -2.81284       -1.16758       -3.11133
C         -1.81301       -1.03550       -4.25619
H         -1.11282       -0.20665       -4.07634
H         -1.21340       -1.95411       -4.32184
H         -2.31643       -0.86671       -5.21944
C         -3.81051       -2.27187       -3.40329
H         -3.27099       -3.18753       -3.68677
H         -4.47098       -1.99512       -4.23922
H         -4.42559       -2.49861       -2.52298
C         -3.43988        0.20623       -2.69984
O         -2.45567        0.72877       -1.79898
C         -3.62416        1.19175       -3.83893
H         -4.30295        0.78644       -4.60503
H         -4.06183        2.12373       -3.45177
H         -2.66456        1.44038       -4.30882
C         -4.74254        0.04013       -1.92707
H         -4.60651       -0.65182       -1.08347
H         -5.04879        1.01883       -1.53086
H         -5.55247       -0.33307       -2.57021
H          0.50706       -6.27983        1.07846
H          1.40417       -1.12537        5.68297
C          2.12124       -0.36669       -0.44561
C          3.01442        0.32663        0.38679
C          2.73658       -1.05771       -1.51179
C          4.38404        0.33359        0.17658
H          2.63934        0.92150        1.22130
C          1.94196       -1.79451       -2.45131
C          4.12710       -1.06664       -1.72822
C          4.99619       -0.35947       -0.89032
Cl         5.40403        1.25281        1.25827
N          1.32631       -2.40449       -3.22469
H          4.52565       -1.62774       -2.57413
N          6.35021       -0.31230       -1.08598
H          6.88562        0.09127       -0.33036
C          7.02522       -1.12192       -2.05195
H          8.10429       -0.92615       -1.99599
H          6.70180       -0.88320       -3.08035
H          6.86673       -2.20801       -1.89929
