104
Int2_comp98_2_Sub14.log	Energy: -1379501.6153206
N          0.82124        2.34519        0.34117
C          1.40188        2.86911       -0.75004
C          1.96485        4.14949       -0.72995
C          1.89530        4.90100        0.43563
C          1.24784        4.36254        1.54373
C          0.72405        3.07752        1.45086
H          0.18247        2.60647        2.27350
H          1.14725        4.92350        2.47420
H          2.45689        4.55548       -1.61304
C          1.36469        2.03095       -1.96280
N          0.84234        0.79570       -1.82433
C          0.71786        0.00062       -2.89553
C          1.11859        0.40302       -4.16310
C          1.67078        1.66989       -4.32376
C          1.79246        2.49087       -3.21136
H          2.20870        3.49191       -3.31382
H          1.00018       -0.28132       -5.00423
H          0.29343       -0.98761       -2.70160
Ir         0.30758        0.13237        0.15166
H          0.18205       -0.43469        1.63889
B         -1.62612        0.48873       -0.70047
O         -2.32682        1.67942       -0.74055
C         -3.11563        1.70926       -1.93687
C         -4.42964        2.41010       -1.64524
H         -4.96217        1.93690       -0.81069
H         -5.08500        2.40251       -2.52943
H         -4.23458        3.45747       -1.37232
C         -2.31782        2.50372       -2.96636
H         -2.87659        2.64259       -3.90320
H         -2.08970        3.49368       -2.54548
H         -1.36430        2.00865       -3.19911
C         -3.24453        0.18621       -2.30023
O         -2.09384       -0.37827       -1.66567
C         -4.46799       -0.48142       -1.68688
H         -4.51680       -0.28689       -0.60859
H         -5.40281       -0.14208       -2.15628
H         -4.38234       -1.56875       -1.82590
C         -3.17616       -0.12074       -3.78615
H         -2.22879        0.21784       -4.22519
H         -3.24727       -1.20783       -3.93657
H         -4.00753        0.35530       -4.32808
B          0.06476       -1.85747       -0.14402
O         -0.19898       -2.79193        0.83875
C         -0.58646       -4.00877        0.19953
C         -0.17568       -5.18147        1.06892
H          0.89080       -5.13511        1.32398
H         -0.74936       -5.16102        2.00713
H         -0.37957       -6.13831        0.56392
C         -2.10382       -3.96300        0.03907
H         -2.50477       -4.89817       -0.37949
H         -2.55259       -3.79336        1.02787
H         -2.39782       -3.11972       -0.60307
C          0.16558       -3.90631       -1.16754
O          0.18082       -2.48884       -1.37733
C         -0.53962       -4.56782       -2.33637
H         -1.52550       -4.11798       -2.51113
H          0.05974       -4.44331       -3.25073
H         -0.66756       -5.64677       -2.15934
C          1.61513       -4.36922       -1.08125
H          2.12835       -3.89664       -0.23152
H          1.69102       -5.46217       -0.98321
H          2.14386       -4.06519       -1.99631
B         -1.33379        0.18891        1.42927
O         -1.44187        1.22366        2.36607
C         -2.25536        0.75346        3.44338
C         -1.32696        0.10829        4.46912
H         -0.80176       -0.75671        4.03781
H         -0.56973        0.84441        4.77677
H         -1.87040       -0.22299        5.36586
C         -2.98652        1.93073        4.06037
H         -2.26297        2.60296        4.54520
H         -3.70137        1.59379        4.82651
H         -3.52672        2.50759        3.29907
C         -3.16966       -0.29203        2.72093
O         -2.32618       -0.75097        1.66157
C         -3.57223       -1.48409        3.57015
H         -4.14634       -1.16526        4.45374
H         -4.20540       -2.15945        2.97629
H         -2.69415       -2.05311        3.90049
C         -4.40167        0.35066        2.09507
H         -4.11449        1.19826        1.45626
H         -4.91192       -0.39742        1.47193
H         -5.11300        0.69933        2.85753
H          2.33461        5.90025        0.47299
H          2.00145        2.01883       -5.30431
C          2.39511       -0.29069        0.35991
C          3.09388       -0.90522       -0.68980
C          3.17945        0.03437        1.48786
N          4.39761       -1.16653       -0.71439
H          2.54897       -1.23449       -1.58208
C          2.58821        0.63819        2.73055
C          4.56743       -0.22096        1.47646
C          5.13576       -0.82434        0.34121
H          1.49549        0.68004        2.67037
H          2.96422        1.66087        2.90443
H          2.85635        0.05172        3.62427
C          5.40742        0.14178        2.66834
C          6.60501       -1.13733        0.24339
H          6.93848       -1.82563        1.03706
H          7.23040       -0.23211        0.31382
H          6.78904       -1.61233       -0.72838
H          6.47488       -0.04210        2.49717
H          5.11224       -0.43542        3.56110
H          5.29209        1.20496        2.93586
