100
Int2_comp175_1_Sub22.log	Energy: -1666308.9786717
N         -0.01110       -2.56803       -0.10884
C          0.48262       -3.10870        1.01761
C          0.59538       -4.49353        1.17003
C          0.18008       -5.32332        0.13559
C         -0.34675       -4.74876       -1.01564
C         -0.42713       -3.36172       -1.09612
H         -0.84303       -2.85458       -1.96628
H         -0.68990       -5.35679       -1.85379
H          1.00800       -4.92337        2.08203
C          0.87222       -2.15474        2.07317
N          0.75326       -0.84387        1.77735
C          1.05082        0.07946        2.70189
C          1.49384       -0.26419        3.97264
C          1.63110       -1.61094        4.29431
C          1.31581       -2.56274        3.33462
H          1.40610       -3.62278        3.56669
H          1.72707        0.52358        4.69021
H          0.92938        1.11848        2.38454
Ir         0.11045       -0.30705       -0.21001
H         -0.12626        0.04514       -1.74914
B         -1.66844        0.03409        0.93198
O         -2.63262       -0.88441        1.29271
C         -3.19378       -0.49596        2.55363
C         -4.67724       -0.81576        2.55259
H         -5.19149       -0.34037        1.70807
H         -5.15271       -0.48133        3.48712
H         -4.81805       -1.90300        2.46625
C         -2.48385       -1.32269        3.62090
H         -2.90004       -1.14572        4.62319
H         -2.60312       -2.38810        3.37632
H         -1.40774       -1.10098        3.64684
C         -2.84766        1.03549        2.62717
O         -1.71242        1.13520        1.76140
C         -3.93379        1.93071        2.04675
H         -4.20876        1.60211        1.03721
H         -4.83426        1.94902        2.67766
H         -3.54247        2.95513        1.96812
C         -2.44755        1.53067        4.00601
H         -1.56470        0.99999        4.38526
H         -2.19963        2.60069        3.95080
H         -3.27098        1.40697        4.72568
B          0.43625        1.69729       -0.21371
O          0.18612        2.56171       -1.25777
C          0.30677        3.89769       -0.76572
C          0.76886        4.80364       -1.89027
H          1.68243        4.42082       -2.36291
H         -0.01311        4.85800       -2.66164
H          0.95888        5.82373       -1.52235
C         -1.07593        4.31357       -0.27116
H         -1.10128        5.36394        0.05522
H         -1.79287        4.17732       -1.09304
H         -1.39841        3.66525        0.55680
C          1.33256        3.71694        0.40050
O          1.02706        2.38711        0.84152
C          1.15614        4.67378        1.56381
H          0.16613        4.56087        2.02428
H          1.91679        4.46913        2.33219
H          1.27780        5.71761        1.23624
C          2.77890        3.71606       -0.08153
H          2.90476        3.03861       -0.93839
H          3.11342        4.72282       -0.37187
H          3.43158        3.35354        0.72617
B         -1.69907       -0.08268       -1.23045
O         -2.22919       -1.16580       -1.92304
C         -3.05544       -0.64184       -2.96860
C         -2.16883       -0.42876       -4.19163
H         -1.39777        0.33028       -3.99438
H         -1.64485       -1.36537       -4.42785
H         -2.75364       -0.11486       -5.06862
C         -4.15064       -1.64482       -3.27602
H         -3.70629       -2.54856       -3.71836
H         -4.87044       -1.23237       -3.99941
H         -4.68921       -1.94104       -2.36672
C         -3.54277        0.70518       -2.33732
O         -2.44152        1.05692       -1.49002
C         -3.76788        1.83156       -3.32886
H         -4.54545        1.56327       -4.06048
H         -4.09857        2.73309       -2.79231
H         -2.84396        2.07950       -3.86588
C         -4.77228        0.52116       -1.45652
H         -4.60319       -0.27484       -0.71713
H         -4.97035        1.46040       -0.92066
H         -5.66463        0.27559       -2.04999
H          0.26672       -6.40777        0.23255
H          1.97748       -1.92016        5.28276
C          2.15854       -0.45003       -0.76052
C          3.17011        0.07871        0.05417
C          2.61130       -1.03832       -1.96501
C          4.51334        0.02686       -0.29999
H          2.91647        0.58737        0.98540
C          1.67923       -1.59970       -2.89812
C          3.97273       -1.09397       -2.31172
C          4.96305       -0.56291       -1.49046
Cl         5.67686        0.75202        0.77676
N          0.95018       -2.06885       -3.67108
H          4.26124       -1.56141       -3.25683
C          6.41275       -0.60785       -1.86108
H          7.00346       -1.13852       -1.09780
H          6.83542        0.40661       -1.93489
H          6.55583       -1.11404       -2.82540
