110
Int2_comp23_2_Sub15.log	Energy: -1496718.3465626
N          0.11566       -2.19661        1.16578
C         -0.27471       -3.17824        0.33713
C         -0.48848       -4.47811        0.80693
C         -0.28904       -4.75208        2.15379
C          0.13120       -3.72548        2.99546
C          0.32583       -2.45886        2.45565
H          0.69444       -1.61868        3.04853
H          0.31314       -3.89800        4.05743
H         -0.80897       -5.26930        0.12989
C         -0.44237       -2.79268       -1.07730
N         -0.18638       -1.50380       -1.37923
C         -0.30839       -1.06929       -2.63822
C         -0.67362       -1.92318       -3.67298
C         -0.93882       -3.25772       -3.38486
C         -0.82613       -3.69544       -2.07121
H         -1.03238       -4.73503       -1.82034
H         -0.75039       -1.53192       -4.68850
H         -0.09152       -0.00879       -2.79282
Ir         0.23374       -0.16033        0.22616
H          0.21635        0.83421        1.48031
B          2.22921       -0.52651       -0.49481
O          3.06080       -1.57026       -0.13243
C          3.84447       -1.94993       -1.26955
C          5.23302       -2.34431       -0.80032
H          5.70267       -1.54264       -0.21634
H          5.88486       -2.58575       -1.65368
H          5.16453       -3.23443       -0.15799
C          3.14803       -3.15046       -1.90276
H          3.72237       -3.56298       -2.74493
H          3.03485       -3.93401       -1.13929
H          2.14467       -2.88330       -2.26290
C          3.78953       -0.66213       -2.16989
O          2.59207       -0.02388       -1.72316
C          4.93890        0.30448       -1.91555
H          5.04103        0.51862       -0.84483
H          5.89569       -0.08296       -2.29514
H          4.71723        1.25267       -2.42613
C          3.66395       -0.93245       -3.65963
H          2.75335       -1.49999       -3.89088
H          3.60776        0.02474       -4.19800
H          4.53520       -1.48909       -4.03739
B          0.12283        1.63716       -0.71502
O         -0.11201        2.84421       -0.08044
C          0.07831        3.89642       -1.02463
C         -0.87014        5.03470       -0.69739
H         -1.90662        4.68084       -0.62578
H         -0.59578        5.47343        0.27322
H         -0.81536        5.82784       -1.45921
C          1.52830        4.35549       -0.89974
H          1.74970        5.21250       -1.55325
H          1.71135        4.65036        0.14336
H          2.21736        3.53051       -1.13055
C         -0.21010        3.17171       -2.38159
O          0.20460        1.83576       -2.08813
C          0.59107        3.68588       -3.56323
H          1.66859        3.56619       -3.39282
H          0.32604        3.11701       -4.46712
H          0.37579        4.74852       -3.75455
C         -1.69631        3.12265       -2.72135
H         -2.27660        2.73492       -1.87231
H         -2.08528        4.10985       -3.01178
H         -1.84176        2.43049       -3.56425
B          1.85157        0.53734        1.33938
O          2.20201       -0.06714        2.55450
C          2.86094        0.91549        3.35383
C          1.79135        1.63694        4.17051
H          1.07794        2.15731        3.51440
H          1.23221        0.89420        4.75866
H          2.22726        2.36916        4.86572
C          3.84954        0.22387        4.27372
H          3.30599       -0.39475        5.00335
H          4.45041        0.95799        4.83208
H          4.52385       -0.43374        3.71074
C          3.50228        1.83830        2.26403
O          2.58193        1.70856        1.17963
C          3.60414        3.30427        2.64475
H          4.23287        3.43888        3.53844
H          4.05997        3.86730        1.81720
H          2.61367        3.73578        2.83685
C          4.85557        1.32038        1.79101
H          4.78688        0.25779        1.51594
H          5.15869        1.89071        0.90157
H          5.63333        1.44109        2.55896
H         -0.45509       -5.76014        2.53996
H         -1.23301       -3.95474       -4.17262
C         -1.87032       -0.01745        0.29266
C         -2.56439       -0.08307        1.52509
N         -2.54083        0.13492       -0.85510
C         -3.95516        0.00277        1.61866
H         -1.98717       -0.17269        2.45041
C         -3.86517        0.19474       -0.76499
C         -4.66733        0.12570        0.40261
N         -4.59837       -0.05441        2.86101
N         -4.70982        0.28310       -1.83696
C         -6.04711        0.12821       -0.02669
C         -6.01292        0.22824       -1.39930
H         -4.39266        0.31969       -2.79433
C         -7.27752       -0.02763        0.81625
H         -6.83670        0.24537       -2.10932
C         -8.49881       -0.51855        0.05436
H         -7.53191        0.93143        1.30379
H         -7.04370       -0.71889        1.64234
H         -8.80239        0.19576       -0.72737
H         -9.35946       -0.64889        0.72764
H         -8.30025       -1.48394       -0.43663
H         -3.93797       -0.35755        3.57054
C         -5.29551        1.13678        3.30473
H         -5.86963        0.91645        4.21764
H         -6.00641        1.46815        2.53896
H         -4.61694        1.98768        3.51282
