98
Int2_comp89_1_Sub22.log	Energy: -1330195.1826580
N          1.79858       -1.72239        0.70279
C          2.62917       -1.31889        1.67915
C          3.60283       -2.17861        2.19865
C          3.70597       -3.46986        1.69929
C          2.82582       -3.87692        0.70002
C          1.88422       -2.96803        0.23257
H          1.14296       -3.23348       -0.52342
H          2.86151       -4.88489        0.28377
H          4.28122       -1.84132        2.98132
C          2.44087        0.06338        2.15461
N          1.50582        0.79869        1.52003
C          1.27093        2.05417        1.91390
C          1.96850        2.64751        2.95750
C          2.94179        1.90756        3.62030
C          3.17550        0.60129        3.21444
H          3.92681       -0.00157        3.72240
H          1.74189        3.67728        3.23722
H          0.48555        2.57846        1.36390
Ir         0.53451       -0.09407       -0.16071
H          0.23398       -0.65251       -1.62774
B         -1.12648       -0.29010        1.19119
O         -2.50240       -0.24224        1.04355
C         -3.11902       -0.33366        2.33495
C         -4.36417        0.53302        2.33602
H         -4.13490        1.55862        2.01955
H         -4.82438        0.56358        3.33557
H         -5.10111        0.11964        1.63199
C         -3.48624       -1.79318        2.58219
H         -3.97035       -1.92780        3.56014
H         -4.19140       -2.13109        1.81045
H         -2.59446       -2.43499        2.53532
C         -1.97012        0.15176        3.27309
O         -0.80887       -0.25916        2.54308
C         -1.91550        1.67190        3.39174
H         -1.92471        2.14091        2.39646
H         -2.75295        2.06712        3.98516
H         -0.97662        1.95269        3.89119
C         -1.93761       -0.48727        4.64816
H         -1.81444       -1.57582        4.58272
H         -1.08658       -0.08549        5.21750
H         -2.85846       -0.26635        5.20945
B         -0.49482        1.51133       -0.87143
O         -0.84983        1.75321       -2.17842
C         -1.82688        2.79494       -2.19771
C         -1.68831        3.58059       -3.48788
H         -0.65848        3.92958       -3.63659
H         -1.95036        2.93455       -4.33821
H         -2.36473        4.44924       -3.49640
C         -3.19824        2.12991       -2.12079
H         -4.01487        2.86315       -2.19793
H         -3.28197        1.41444       -2.95036
H         -3.30324        1.55699       -1.18813
C         -1.47388        3.59476       -0.90014
O         -0.94334        2.56039       -0.06045
C         -2.65761        4.23354       -0.19865
H         -3.39261        3.47751        0.10639
H         -2.31610        4.76218        0.70408
H         -3.15506        4.96555       -0.85311
C         -0.36640        4.61865       -1.12118
H          0.48908        4.16735       -1.64422
H         -0.71805        5.48256       -1.70375
H         -0.01542        4.98568       -0.14489
B         -1.00018       -1.30890       -0.88268
O         -1.00628       -2.68598       -0.65879
C         -1.87094       -3.29903       -1.62066
C         -0.98728       -3.79881       -2.76011
H         -0.44175       -2.96785       -3.23104
H         -0.24794       -4.50661       -2.35564
H         -1.56653       -4.31968       -3.53594
C         -2.58279       -4.46587       -0.96113
H         -1.84907       -5.23513       -0.67796
H         -3.31065       -4.92404       -1.64775
H         -3.10746       -4.14835       -0.05118
C         -2.80914       -2.10969       -2.04984
O         -2.01177       -0.96766       -1.75760
C         -3.15765       -2.08563       -3.52965
H         -3.70329       -2.99525       -3.82408
H         -3.80322       -1.21955       -3.73542
H         -2.26111       -1.98866       -4.15473
C         -4.08558       -2.01622       -1.22439
H         -3.85115       -2.00223       -0.15522
H         -4.58556       -1.06648       -1.46232
H         -4.77808       -2.84231       -1.44262
H          4.46489       -4.15137        2.08952
H          3.51284        2.33916        4.44498
C          2.30297        0.56388       -1.16133
C          3.13902       -0.31540       -1.85831
C          2.74131        1.89981       -1.14023
C          4.31847        0.12274       -2.47363
H          2.87895       -1.37836       -1.93520
N          3.85627        2.35328       -1.70730
H          2.14239        2.66119       -0.62268
C          4.62254        1.48103       -2.35579
C          5.20814       -0.81908       -3.22971
H          5.53825        1.87591       -2.81660
H          4.70340       -1.21290       -4.12717
H          5.49216       -1.68695       -2.61302
H          6.13235       -0.32180       -3.55889
