112
Int2_comp177_0_Sub11.log	Energy: -3125292.5602708
N          0.19761       -1.27658        1.93990
C          0.35927       -0.58465        3.07915
C          0.93282       -1.17119        4.21115
C          1.32032       -2.50438        4.15784
C          1.10704       -3.21937        2.98413
C          0.54149       -2.56347        1.89511
H          0.32810       -3.06937        0.95288
H          1.37825       -4.27278        2.90048
H          1.08292       -0.59475        5.12324
C         -0.13353        0.80575        3.06148
N         -0.59671        1.26657        1.88146
C         -1.10979        2.50204        1.80275
C         -1.17378        3.34656        2.90380
C         -0.68985        2.89320        4.12670
C         -0.16787        1.60919        4.20445
H          0.20462        1.22748        5.15383
H         -1.59334        4.34676        2.78839
H         -1.45901        2.80454        0.81247
Ir        -0.41704       -0.01308        0.15031
H         -0.03558       -0.88316       -1.13278
B         -2.51481       -0.12592        0.55003
O         -3.16723       -0.98371        1.41089
C         -4.32362       -0.31676        1.93583
C         -5.44637       -1.32493        2.09466
H         -5.66398       -1.83923        1.15028
H         -6.36678       -0.83586        2.44793
H         -5.15603       -2.08420        2.83529
C         -3.92431        0.23769        3.29959
H         -4.77186        0.71061        3.81625
H         -3.55490       -0.59103        3.92074
H         -3.11585        0.97673        3.20806
C         -4.58849        0.80484        0.86703
O         -3.29524        0.97668        0.27680
C         -5.53504        0.37281       -0.24423
H         -5.20782       -0.57549       -0.68728
H         -6.56887        0.26416        0.11427
H         -5.51969        1.13439       -1.03703
C         -5.03722        2.13669        1.44246
H         -4.29573        2.54672        2.14023
H         -5.16800        2.86103        0.62539
H         -5.99900        2.03652        1.96794
B         -0.81377        1.29274       -1.35379
O         -0.81043        1.00618       -2.70078
C         -1.39273        2.11595       -3.38914
C         -0.78324        2.21932       -4.77346
H          0.31275        2.25342       -4.72702
H         -1.06928        1.33861       -5.36672
H         -1.14493        3.11740       -5.29735
C         -2.89147        1.84218       -3.47814
H         -3.41902        2.60962       -4.06369
H         -3.03713        0.86429       -3.95826
H         -3.33205        1.78352       -2.47196
C         -1.05393        3.30304       -2.42881
O         -1.05922        2.64580       -1.15269
C         -2.07682        4.42246       -2.40915
H         -3.06063        4.05648       -2.08814
H         -1.75679        5.20663       -1.70686
H         -2.17659        4.88048       -3.40503
C          0.34824        3.85922       -2.64622
H          1.09144        3.04921       -2.67322
H          0.41951        4.43663       -3.57940
H          0.60684        4.52490       -1.80955
B         -1.50467       -1.52051       -0.79244
O         -1.28206       -2.85212       -0.44678
C         -1.70128       -3.66481       -1.54722
C         -0.49114       -3.86293       -2.45531
H         -0.12971       -2.90314       -2.85234
H          0.32440       -4.31079       -1.86890
H         -0.71642       -4.53106       -3.29904
C         -2.18509       -5.00060       -1.01537
H         -1.33964       -5.55241       -0.57846
H         -2.60965       -5.61602       -1.82304
H         -2.94295       -4.86811       -0.23303
C         -2.80831       -2.77123       -2.20349
O         -2.37249       -1.44965       -1.86745
C         -2.90243       -2.87790       -3.71457
H         -3.14631       -3.90574       -4.02414
H         -3.69847       -2.21267       -4.07983
H         -1.96446       -2.57303       -4.19519
C         -4.17800       -2.98692       -1.57224
H         -4.12216       -2.88094       -0.47939
H         -4.87032       -2.22722       -1.96180
H         -4.58858       -3.97698       -1.81679
H          1.77739       -2.97910        5.02878
H         -0.71894        3.53005        5.01328
C          1.58303        0.71299        0.02189
C          1.84618        2.07059        0.27624
C          2.73017       -0.02774       -0.29271
C          3.14739        2.56398        0.23700
H          1.03209        2.76820        0.47742
C          4.03084        0.52772       -0.31090
Br         2.55732       -1.87468       -0.74881
C          3.37311        3.96520        0.49848
N          4.21492        1.81427       -0.03553
C          5.27465       -0.28630       -0.57419
N          3.50413        5.09648        0.71526
H          5.01346       -1.07773       -1.29682
C          5.72996       -0.97956        0.71965
H          4.90987       -1.59773        1.11945
H          5.93808       -0.19794        1.47219
C          6.97582       -1.82685        0.49183
H          7.30144       -2.28437        1.44066
H          6.72194       -2.66277       -0.18527
C          8.10565       -1.00754       -0.12195
H          8.98202       -1.64688       -0.31822
H          8.43331       -0.24323        0.60592
C          7.65250       -0.31256       -1.40149
H          7.43155       -1.07649       -2.16956
H          8.46699        0.30806       -1.80901
C          6.41328        0.54274       -1.16514
H          6.64474        1.36951       -0.47484
H          6.07998        1.01614       -2.10253
