19
Properties=species:S:1:pos:R:3 RH_Sub24.log=T Energy:=T -205101.3948034=T pbc="F F F"
N       -0.35516000       1.49659000       0.42762000
H       -0.29820000       1.17727000       1.39077000
H       -1.10367000       2.17871000       0.34231000
C       -0.49600000       0.43306000      -0.51228000
O       -1.79423000      -0.13987000      -0.60085000
H       -0.35692000       0.85324000      -1.52277000
C        0.57700000      -0.63178000      -0.28067000
H        0.39970000      -1.42845000      -1.02384000
H        0.44752000      -1.09250000       0.71364000
C        1.96877000      -0.10468000      -0.41096000
C        2.94948000      -0.29350000       0.47181000
H        3.95172000       0.11054000       0.30816000
H        2.78626000      -0.85993000       1.39484000
H        2.17773000       0.47416000      -1.31973000
C       -2.29630000      -0.74190000       0.55206000
H       -1.77663000      -1.68366000       0.81290000
H       -2.25263000      -0.07240000       1.43268000
H       -3.35261000      -0.98137000       0.36475000
Kr       2.86787000      -0.57671500       0.93332500
