16
Properties=species:S:1:pos:R:3 RH_Sub12.log=T Energy:=T -528334.0112395=T pbc="F F F"
S        2.91715000       0.50845000      -0.00016000
C        1.54764000      -0.65137000       0.00007000
H        3.83310000      -0.48205000      -0.00015000
O        1.72314000      -1.84118000       0.00024000
C        0.19194000      -0.02740000       0.00005000
C       -0.01642000       1.35590000       0.00012000
C       -0.89905000      -0.90287000      -0.00002000
C       -1.31437000       1.86010000       0.00010000
C       -2.18076000      -0.37659000      -0.00003000
H       -0.73290000      -1.98115000      -0.00005000
C       -2.40745000       0.99648000       0.00002000
H       -1.47965000       2.93944000       0.00017000
F       -3.22299000      -1.20212000      -0.00016000
H       -3.43396000       1.36764000      -0.00000000
H        0.83169000       2.04401000       0.00019000
Kr      -2.92070500       1.18206000       0.00001000
