15
Properties=species:S:1:pos:R:3 RH_Sub14_S.log=T Energy:=T -395531.1282691=T pbc="F F F"
S       -2.17370000      -0.22690000      -0.02513000
H       -2.63014000      -1.46301000       0.26636000
C       -0.41473000      -0.68849000      -0.03371000
H       -0.20455000      -1.31093000       0.85120000
H       -0.19438000      -1.29687000      -0.92645000
C        0.49386000       0.51131000      -0.04962000
O        1.78970000       0.25644000      -0.38213000
C        0.11559000       1.77402000       0.16431000
H        0.85859000       2.57182000       0.12287000
H       -0.92701000       2.02656000       0.35711000
C        2.42239000      -0.84924000       0.20502000
H        2.38673000      -0.80435000       1.30873000
H        1.99638000      -1.81325000      -0.12562000
H        3.47338000      -0.81666000      -0.11113000
Xe       2.18967783       4.00108227       0.04863005
