18
Properties=species:S:1:pos:R:3 aa119_plan_opt_TZ.log=T Energy:=T -241337.5263882=T pbc="F F F"
C       -0.21072000      -0.04810000      -0.00000000
C        0.42775000       1.19124000       0.00001000
C        1.80866000       1.26131000       0.00001000
C        2.56966000       0.10317000       0.00000000
C        1.94526000      -1.13387000      -0.00001000
C        0.56655000      -1.20757000      -0.00001000
H       -0.14453000       2.10567000       0.00001000
H        2.29593000       2.22538000       0.00001000
H        3.64786000       0.16581000      -0.00000000
H        2.53534000      -2.03823000      -0.00001000
H        0.05992000      -2.16115000      -0.00001000
C       -1.68832000      -0.20834000      -0.00000000
O       -2.20334000      -1.30448000       0.00002000
C       -2.51862000       1.05231000      -0.00001000
H       -3.57261000       0.78568000      -0.00012000
H       -2.29832000       1.64580000       0.88448000
H       -2.29818000       1.64591000      -0.88440000
Xe       3.60642422      -3.67977983      -0.00001000
