28
Properties=species:S:1:pos:R:3 aa197_plan_opt_TZ.log=T Energy:=T -360071.9738335=T pbc="F F F"
C       -1.01265000      -1.42864000      -0.01368000
C       -0.65797000      -0.08451000      -0.00488000
N        0.66457000       0.36362000      -0.00487000
C        1.81958000      -0.38289000       0.00178000
N        2.97120000       0.36181000      -0.00306000
C        4.23654000      -0.33471000       0.02639000
C        3.01747000       1.80483000      -0.02755000
C       -2.35116000      -1.77772000      -0.01356000
C       -3.33963000      -0.81168000      -0.00558000
C       -2.99923000       0.53668000       0.00207000
C       -1.65999000       0.88597000       0.00239000
C       -4.07052000       1.58591000       0.01928000
H        0.75417000       1.36707000       0.00490000
O        1.84647000      -1.59764000       0.01137000
H        4.02700000      -1.40183000       0.04985000
H        4.80655000      -0.05955000       0.91678000
H        4.82465000      -0.10319000      -0.86463000
H        4.06023000       2.11231000      -0.06849000
H        2.57493000       2.24244000       0.87410000
H        2.51576000       2.21153000      -0.91165000
H       -0.24422000      -2.18195000      -0.01993000
H       -2.62259000      -2.82307000      -0.02017000
H       -4.38124000      -1.09800000      -0.00553000
H       -1.38316000       1.93307000       0.00813000
H       -3.64775000       2.58101000      -0.09538000
H       -4.61699000       1.54956000       0.96148000
H       -4.78414000       1.41437000      -0.78494000
Xe       1.15677824      -3.55538153      -0.03132497
