26
Properties=species:S:1:pos:R:3 aa266_plan_opt_TZ.log=T Energy:=T -372369.8862638=T pbc="F F F"
C       -2.63046000       0.26323000      -0.00031000
O       -3.97151000       0.49023000      -0.00001000
C        4.37595000      -0.01874000       0.00057000
H        4.28370000      -2.16484000       0.00024000
H        1.82541000      -2.21403000      -0.00047000
C        0.16729000       0.01664000      -0.00048000
C       -2.03275000      -0.99237000      -0.00053000
C       -0.44699000       1.27409000      -0.00044000
C       -1.81522000       1.39833000      -0.00039000
H       -4.70644000      -1.23271000       0.89476000
C        3.72219000      -1.24083000       0.00020000
H       -2.28918000       2.36738000      -0.00033000
H        0.18398000       2.14833000      -0.00042000
H       -2.62930000      -1.89152000      -0.00064000
C       -4.84200000      -0.61457000       0.00119000
C       -0.65441000      -1.10684000      -0.00061000
C        1.63292000      -0.05958000      -0.00022000
C        2.34000000      -1.26672000      -0.00019000
N        2.27698000       1.11009000       0.00010000
H       -5.84819000      -0.19831000       0.00214000
H       -4.70837000      -1.23318000      -0.89236000
H       -0.23177000      -2.09969000      -0.00077000
C        3.59295000       1.12604000       0.00049000
H        5.45293000       0.04300000       0.00090000
H        4.04365000       2.11112000       0.00076000
Xe       1.33157280       3.73837633      -0.00038362
