13

He      0.150450000000000     -0.410940000000000     -0.485430000000000
C       1.653120000000000     -1.604080000000000     -1.383350000000000
C       2.096260000000000     -2.881360000000000     -1.035030000000000
N       2.466960000000000     -1.206250000000000     -2.427950000000000
C       3.176110000000000     -3.246730000000000     -1.882160000000000
H       1.698640000000000     -3.496470000000000     -0.230000000000000
C       3.379440000000000     -2.186260000000000     -2.735190000000000
C       2.388570000000000      0.041310000000000     -3.143860000000000
H       3.741640000000000     -4.177490000000000     -1.869970000000000
H       4.091500000000000     -2.049940000000000     -3.547570000000000
H       1.423470000000000      0.144410000000000     -3.665530000000000
H       3.189010000000000      0.069750000000000     -3.895590000000000
H       2.513920000000000      0.892520000000000     -2.458740000000000
