12

He     -0.345280000000000      0.280390000000000     -0.174830000000000
C      -2.485220000000000      0.313930000000000     -0.405330000000000
C      -3.281620000000000      1.212510000000000      0.332140000000000
C      -3.227250000000000     -0.506910000000000     -1.273090000000000
C      -4.669870000000000      1.299860000000000      0.238290000000000
H      -2.804210000000000      1.897190000000000      1.035910000000000
C      -4.618000000000000     -0.457380000000000     -1.406210000000000
Cl     -2.460240000000000     -1.710170000000000     -2.296170000000000
C      -5.326510000000000      0.451970000000000     -0.639020000000000
H      -5.242650000000000      2.012770000000000      0.834770000000000
H      -5.143190000000000     -1.118440000000000     -2.095990000000000
F      -6.657520000000000      0.508130000000000     -0.753540000000000
