17

He      0.463420000000000      0.015090000000000     -0.299630000000000
C       2.251530000000000      0.654860000000000     -1.347640000000000
C       3.180460000000000      1.627140000000000     -0.913530000000000
C       2.633970000000000     -0.050870000000000     -2.527800000000000
C       4.429660000000000      1.726560000000000     -1.546740000000000
C       2.913480000000000      2.620600000000000      0.183840000000000
N       3.833560000000000      0.046420000000000     -3.111300000000000
C       1.679280000000000     -0.922580000000000     -3.300230000000000
C       4.725040000000000      0.891960000000000     -2.608620000000000
H       5.158650000000000      2.469040000000000     -1.207680000000000
H       3.363820000000000      3.591650000000000     -0.073210000000000
H       3.368920000000000      2.308420000000000      1.138200000000000
H       1.841340000000000      2.775660000000000      0.342290000000000
H       0.908370000000000     -0.294480000000000     -3.778460000000000
H       1.142940000000000     -1.651930000000000     -2.684280000000000
H       2.237410000000000     -1.441610000000000     -4.089880000000000
H       5.707140000000000      0.925420000000000     -3.097270000000000
