13

He      0.461840000000000      0.011080000000000     -0.477870000000000
C       2.039840000000000      1.053620000000000     -1.418030000000000
C       3.393190000000000      0.751860000000000     -1.387440000000000
C       1.946400000000000      2.233610000000000     -2.227820000000000
N       4.098790000000000      1.678240000000000     -2.119650000000000
H       3.933820000000000     -0.057660000000000     -0.895670000000000
C       3.214980000000000      2.583220000000000     -2.642890000000000
H       1.028160000000000      2.772160000000000     -2.458150000000000
C       5.505840000000000      1.628440000000000     -2.393670000000000
H       3.565810000000000      3.405500000000000     -3.265670000000000
H       5.742100000000000      0.994620000000000     -3.266760000000000
H       6.045120000000000      1.227960000000000     -1.522430000000000
H       5.886630000000000      2.640920000000000     -2.590610000000000
