14

He     -0.173950000000000      0.406210000000000     -0.463630000000000
C      -2.076330000000000      1.261990000000000     -1.039500000000000
C      -2.344570000000000      2.643740000000000     -1.226570000000000
C      -3.186800000000000      0.409120000000000     -1.146640000000000
N      -1.302640000000000      3.574710000000000     -1.240700000000000
C      -3.660680000000000      3.108490000000000     -1.385720000000000
C      -4.486480000000000      0.877670000000000     -1.324130000000000
H      -3.049070000000000     -0.670990000000000     -1.077870000000000
H      -0.475150000000000      3.195630000000000     -1.686510000000000
H      -1.562370000000000      4.460590000000000     -1.658470000000000
C      -4.744020000000000      2.238380000000000     -1.422580000000000
H      -3.835910000000000      4.183490000000000     -1.498780000000000
Cl     -5.804530000000000     -0.268660000000000     -1.392290000000000
H      -5.763600000000000      2.607580000000000     -1.544440000000000
