12

He      0.418230000000000      0.061230000000000      0.028980000000000
C       2.302160000000000     -0.548910000000000      0.854060000000000
C       3.274590000000000      0.395560000000000      1.217990000000000
C       2.679520000000000     -1.876440000000000      1.045890000000000
C       4.518690000000000      0.020710000000000      1.725500000000000
H       3.074210000000000      1.464690000000000      1.112320000000000
F       1.813990000000000     -2.863320000000000      0.721640000000000
C       3.910660000000000     -2.280850000000000      1.547420000000000
C       4.854580000000000     -1.318940000000000      1.896480000000000
Cl      5.674400000000000      1.254500000000000      2.150140000000000
H       4.119330000000000     -3.346790000000000      1.661560000000000
H       5.830320000000000     -1.599890000000000      2.294830000000000
