28

He      0.488790000000000     -0.209040000000000      0.231480000000000
C      -1.677490000000000     -0.316110000000000      0.362070000000000
C      -2.559800000000000     -1.360890000000000      0.045280000000000
C      -2.328290000000000      0.842080000000000      0.842160000000000
Cl     -1.964910000000000     -2.916630000000000     -0.489350000000000
C      -3.960040000000000     -1.246000000000000      0.148550000000000
C      -3.706290000000000      0.962820000000000      0.967350000000000
H      -1.722830000000000      1.709510000000000      1.111810000000000
C      -4.570820000000000     -0.074590000000000      0.612810000000000
Cl     -4.970640000000000     -2.591610000000000     -0.306850000000000
H      -4.120260000000000      1.899230000000000      1.347010000000000
C      -6.072630000000000      0.063290000000000      0.677570000000000
H      -6.475480000000000     -0.925990000000000      0.957720000000000
C      -6.654850000000000      0.405360000000000     -0.702570000000000
H      -6.311110000000000     -0.336260000000000     -1.439720000000000
H      -6.246360000000000      1.381730000000000     -1.020910000000000
C      -8.177700000000000      0.460940000000000     -0.671830000000000
H      -8.568210000000001      0.744330000000000     -1.663040000000000
H      -8.567430000000000     -0.551980000000000     -0.463420000000000
C      -8.685680000000000      1.423270000000000      0.396190000000000
H      -9.787190000000001      1.407610000000000      0.437700000000000
H      -8.399979999999999      2.454580000000000      0.118990000000000
C      -8.095689999999999      1.096000000000000      1.763950000000000
H      -8.469400000000000      0.110230000000000      2.095470000000000
H      -8.438720000000000      1.826080000000000      2.515160000000000
C      -6.571680000000000      1.064400000000000      1.719040000000000
H      -6.207140000000000      2.076550000000000      1.469190000000000
H      -6.155990000000000      0.817040000000000      2.709360000000000
