23

He      0.063930000000000     -0.105550000000000      0.080490000000000
C       2.120280000000000      0.411260000000000      0.225810000000000
C       2.553250000000000      1.387750000000000      1.141100000000000
C       3.140420000000000     -0.190630000000000     -0.557220000000000
C       3.887150000000000      1.720740000000000      1.292630000000000
H       1.816320000000000      1.926550000000000      1.739700000000000
C       2.739370000000000     -1.161070000000000     -1.535220000000000
C       4.517030000000000      0.112770000000000     -0.433760000000000
C       4.871630000000000      1.083640000000000      0.519750000000000
H       4.190750000000000      2.485400000000000      2.011330000000000
N       2.427430000000000     -1.948810000000000     -2.329330000000000
C       5.601230000000000     -0.550410000000000     -1.262590000000000
C       6.239880000000000      1.452810000000000      0.725610000000000
N       7.337290000000000      1.775440000000000      0.923660000000000
H       6.549700000000000     -0.109550000000000     -0.918510000000000
C       5.702780000000000     -2.054500000000000     -0.999520000000000
H       6.579210000000000     -2.465450000000000     -1.523840000000000
H       5.825870000000000     -2.258190000000000      0.074980000000000
H       4.816720000000000     -2.598500000000000     -1.355840000000000
C       5.485220000000000     -0.220450000000000     -2.752290000000000
H       5.456250000000000      0.867680000000000     -2.912440000000000
H       6.359500000000000     -0.618220000000000     -3.290230000000000
H       4.586120000000000     -0.659880000000000     -3.206500000000000
