21

He     -0.064280000000000      0.196120000000000     -0.380600000000000
C       1.462120000000000      1.586950000000000     -0.973450000000000
C       2.857270000000000      1.344580000000000     -0.938620000000000
C       1.108340000000000      2.839750000000000     -1.502420000000000
C       3.797380000000000      2.308620000000000     -1.402970000000000
N       3.454190000000000      0.174530000000000     -0.509590000000000
C       2.037310000000000      3.791560000000000     -1.949290000000000
H       0.048920000000000      3.098180000000000     -1.572810000000000
C       3.403170000000000      3.545980000000000     -1.907520000000000
S       5.411470000000000      1.678240000000000     -1.263030000000000
C       4.734160000000000      0.189470000000000     -0.626930000000000
H       1.675790000000000      4.745430000000000     -2.343870000000000
H       4.130150000000000      4.279650000000000     -2.260610000000000
C       5.628820000000000     -0.970880000000000     -0.283960000000000
H       5.443190000000000     -1.780170000000000     -1.007970000000000
O       5.396850000000000     -1.517140000000000      0.979740000000000
H       6.686620000000000     -0.656990000000000     -0.394370000000000
C       5.660020000000000     -0.628340000000000      2.027510000000000
H       6.693150000000000     -0.232530000000000      1.974380000000000
H       4.958710000000000      0.225510000000000      2.033710000000000
H       5.546140000000000     -1.181450000000000      2.969620000000000
