16

He     -0.115660000000000      0.180740000000000     -0.204390000000000
C      -2.241310000000000      0.335880000000000     -0.049370000000000
C      -2.967010000000000      1.563790000000000     -0.078020000000000
C      -3.128850000000000     -0.715000000000000      0.130200000000000
C      -4.335740000000000      1.438400000000000      0.070370000000000
H      -2.521110000000000      2.551040000000000     -0.196530000000000
S      -4.785920000000000     -0.215260000000000      0.247990000000000
C      -2.850480000000000     -2.181400000000000      0.208360000000000
C      -5.292750000000000      2.479470000000000      0.087470000000000
H      -1.851710000000000     -2.342590000000000      0.637620000000000
C      -2.930630000000000     -2.895980000000000     -1.119230000000000
H      -3.566660000000000     -2.692600000000000      0.870180000000000
N      -6.068350000000000      3.345080000000000      0.098830000000000
F      -4.164650000000000     -2.867820000000000     -1.630810000000000
F      -2.587610000000000     -4.185670000000000     -0.982360000000000
F      -2.113520000000000     -2.371600000000000     -2.042840000000000
