16

He      0.169750000000000      0.274650000000000      0.165300000000000
C       2.311510000000000      0.483180000000000      0.098600000000000
C       2.889860000000000      1.654370000000000     -0.423080000000000
C       3.233330000000000     -0.483700000000000      0.538530000000000
C       4.262360000000000      1.827290000000000     -0.512430000000000
H       2.281110000000000      2.480080000000000     -0.793880000000000
C       4.626940000000000     -0.318040000000000      0.448330000000000
Cl      2.720150000000000     -2.021230000000000      1.207450000000000
F       4.741070000000000      2.967710000000000     -1.027530000000000
C       5.153040000000000      0.856690000000000     -0.085980000000000
O       5.489320000000000     -1.296070000000000      0.836180000000000
H       6.231850000000000      0.988900000000000     -0.170010000000000
C       5.775680000000000     -1.331940000000000      2.213350000000000
H       6.239820000000000     -0.387560000000000      2.551030000000000
H       4.868750000000000     -1.520930000000000      2.812350000000000
H       6.484700000000000     -2.155380000000000      2.374330000000000
