21

He     -0.103620000000000      0.133360000000000     -0.143300000000000
C      -2.149750000000000     -0.596180000000000     -0.351910000000000
C      -3.262480000000000      0.160820000000000      0.029890000000000
C      -2.531840000000000     -1.832390000000000     -0.908990000000000
C      -4.612810000000000     -0.191860000000000     -0.068350000000000
F      -3.057200000000000      1.393860000000000      0.556310000000000
Br     -1.256730000000000     -3.100410000000000     -1.572260000000000
C      -3.852980000000000     -2.262410000000000     -1.041330000000000
C      -4.890710000000000     -1.442980000000000     -0.615440000000000
C      -5.678590000000000      0.791510000000000      0.368080000000000
H      -4.065320000000000     -3.238680000000000     -1.479010000000000
H      -5.921530000000000     -1.786480000000000     -0.716950000000000
H      -5.316090000000000      1.253700000000000      1.302000000000000
C      -5.825960000000000      1.912280000000000     -0.665230000000000
H      -6.558530000000000      2.664240000000000     -0.330150000000000
H      -4.866230000000000      2.420390000000000     -0.835890000000000
H      -6.171850000000000      1.505060000000000     -1.628820000000000
C      -7.023370000000000      0.139700000000000      0.661410000000000
H      -6.927640000000000     -0.681490000000000      1.387770000000000
H      -7.724350000000000      0.880630000000000      1.075370000000000
H      -7.485790000000000     -0.268230000000000     -0.251710000000000
