24

He     -0.076260000000000     -0.136070000000000      0.252880000000000
C      -2.134600000000000      0.349990000000000      0.481130000000000
C      -3.176220000000000     -0.493620000000000      0.073270000000000
C      -2.581950000000000      1.549440000000000      1.082030000000000
C      -4.539700000000000     -0.180770000000000      0.247610000000000
H      -2.966380000000000     -1.452330000000000     -0.407210000000000
C      -3.984500000000000      1.763220000000000      1.203770000000000
C      -1.949870000000000      2.712450000000000      1.645190000000000
N      -4.955730000000000      0.950260000000000      0.813340000000000
C      -5.619840000000000     -1.139050000000000     -0.211420000000000
N      -4.174480000000000      2.979880000000000      1.803210000000000
C      -2.949830000000000      3.550990000000000      2.067450000000000
H      -0.882590000000000      2.915860000000000      1.684120000000000
H      -5.082220000000000      3.370170000000000      2.010280000000000
H      -2.884220000000000      4.529140000000000      2.540330000000000
H      -5.114730000000000     -2.013630000000000     -0.656890000000000
C      -6.454200000000000     -1.613270000000000      0.976340000000000
H      -7.253500000000000     -2.300940000000000      0.656120000000000
H      -5.828920000000000     -2.132310000000000      1.719260000000000
H      -6.915450000000000     -0.746770000000000      1.474150000000000
C      -6.494820000000000     -0.487810000000000     -1.280000000000000
H      -5.898550000000000     -0.197230000000000     -2.158680000000000
H      -7.293710000000000     -1.169250000000000     -1.614140000000000
H      -6.958260000000000      0.424070000000000     -0.873800000000000
