22

He      0.022870000000000     -0.189310000000000      0.055600000000000
C       2.127220000000000      0.084810000000000     -0.099750000000000
C       2.736290000000000      1.234490000000000      0.423460000000000
C       2.993640000000000     -0.840160000000000     -0.731690000000000
C       4.106300000000000      1.433520000000000      0.320820000000000
H       2.136190000000000      2.018780000000000      0.886090000000000
C       2.443780000000000     -2.024140000000000     -1.323180000000000
C       4.395900000000000     -0.656300000000000     -0.828980000000000
C       4.944850000000000      0.503540000000000     -0.289900000000000
Cl      4.795410000000000      2.901880000000000      0.952890000000000
N       2.038060000000000     -2.998750000000000     -1.808870000000000
C       5.268920000000000     -1.723840000000000     -1.458750000000000
H       6.014800000000000      0.701560000000000     -0.346050000000000
H       4.687670000000000     -2.163350000000000     -2.286840000000000
C       6.570970000000000     -1.189530000000000     -2.042340000000000
H       7.094060000000000     -1.987310000000000     -2.590900000000000
H       6.392550000000000     -0.357180000000000     -2.739530000000000
H       7.257700000000000     -0.834710000000000     -1.257360000000000
C       5.536680000000000     -2.843830000000000     -0.448760000000000
H       4.598370000000000     -3.281340000000000     -0.077910000000000
H       6.127090000000000     -3.650910000000000     -0.910130000000000
H       6.099830000000000     -2.457740000000000      0.416040000000000
