16

He      0.035130000000000     -0.095390000000000      0.150570000000000
C       2.145670000000000      0.128750000000000     -0.023890000000000
C       2.742580000000000      1.385190000000000      0.228410000000000
C       3.049440000000000     -0.865940000000000     -0.391650000000000
C       4.115910000000000      1.554860000000000      0.121420000000000
H       2.130430000000000      2.253460000000000      0.472930000000000
C       4.442010000000000     -0.609430000000000     -0.469660000000000
Br      2.493530000000000     -2.618900000000000     -0.850390000000000
C       4.685700000000000      2.855010000000000      0.372650000000000
N       4.961580000000000      0.571800000000000     -0.214550000000000
O       5.252060000000000     -1.611900000000000     -0.815700000000000
N       5.100980000000000      3.917100000000000      0.582160000000000
C       6.631110000000000     -1.329980000000000     -0.902750000000000
H       6.832410000000000     -0.545110000000000     -1.647810000000000
H       7.031630000000000     -0.988200000000000      0.064000000000000
H       7.111960000000000     -2.269400000000000     -1.202170000000000
