23

He      0.076610000000000     -0.232170000000000     -0.252330000000000
C       2.087150000000000     -0.305800000000000     -0.985790000000000
C       3.287910000000000     -0.168030000000000     -0.245160000000000
C       2.294720000000000     -0.518600000000000     -2.374430000000000
C       4.591560000000000     -0.294750000000000     -0.792400000000000
C       3.245950000000000      0.187930000000000      1.143790000000000
C       1.201710000000000     -0.565070000000000     -3.303740000000000
C       3.569710000000000     -0.650330000000000     -2.942330000000000
C       4.706740000000000     -0.558060000000000     -2.155530000000000
C       5.820310000000000     -0.078170000000000      0.067230000000000
N       3.312370000000000      0.513280000000000      2.256680000000000
N       0.378450000000000     -0.588000000000000     -4.122910000000000
H       3.658440000000000     -0.819040000000000     -4.018030000000000
H       5.690210000000000     -0.668080000000000     -2.613850000000000
H       5.563740000000000     -0.400310000000000      1.089460000000000
C       7.031060000000000     -0.889270000000000     -0.380670000000000
H       7.841880000000000     -0.791180000000000      0.356840000000000
H       6.790350000000000     -1.958360000000000     -0.481920000000000
H       7.430450000000000     -0.537430000000000     -1.344930000000000
C       6.149750000000000      1.416640000000000      0.132770000000000
H       5.299560000000000      1.998660000000000      0.516150000000000
H       7.009260000000000      1.595040000000000      0.797410000000000
H       6.402770000000000      1.801690000000000     -0.867880000000000
