17

He      0.240420000000000      0.405130000000000      0.348490000000000
C       2.172070000000000      1.203490000000000      0.738850000000000
C       2.688260000000000      2.485990000000000      0.615770000000000
C       3.273970000000000      0.378780000000000      1.181240000000000
N       4.036190000000000      2.449370000000000      0.952170000000000
C       2.095610000000000      3.794530000000000      0.210480000000000
C       4.385480000000000      1.183480000000000      1.295510000000000
H       3.227420000000000     -0.689620000000000      1.378390000000000
H       4.670000000000000      3.235400000000000      0.970540000000000
H       2.751260000000000      4.628320000000000      0.508840000000000
H       1.127530000000000      3.969040000000000      0.699830000000000
H       1.937630000000000      3.887330000000000     -0.878850000000000
O       5.664220000000000      0.959420000000000      1.663920000000000
C       5.956120000000000     -0.370980000000000      1.980560000000000
H       5.343550000000000     -0.729670000000000      2.827340000000000
H       5.775630000000000     -1.040300000000000      1.119400000000000
H       7.017860000000000     -0.415540000000000      2.256710000000000
