22

He      0.023330000000000     -0.133080000000000      0.241730000000000
C      -2.018480000000000      0.376610000000000      0.445810000000000
S      -3.257400000000000     -0.839620000000000      0.381710000000000
C      -2.628980000000000      1.595490000000000      0.625980000000000
C      -4.575840000000000      0.252990000000000      0.573430000000000
C      -4.061530000000000      1.536450000000000      0.696780000000000
H      -2.069310000000000      2.528300000000000      0.709960000000000
C      -6.021760000000000     -0.205300000000000      0.591700000000000
C      -4.862140000000000      2.702140000000000      0.864110000000000
N      -5.505740000000000      3.660670000000000      0.995450000000000
C      -6.780880000000000      0.463500000000000     -0.564320000000000
H      -7.831130000000000      0.130170000000000     -0.571120000000000
H      -6.774620000000000      1.558740000000000     -0.471530000000000
H      -6.327960000000000      0.197670000000000     -1.531670000000000
C      -6.107690000000000     -1.724700000000000      0.423990000000000
H      -5.583480000000000     -2.249530000000000      1.237730000000000
H      -7.161010000000000     -2.043740000000000      0.437720000000000
H      -5.666960000000000     -2.049130000000000     -0.531600000000000
C      -6.663500000000000      0.182120000000000      1.932330000000000
H      -7.712000000000000     -0.155410000000000      1.962120000000000
H      -6.125780000000000     -0.286610000000000      2.770410000000000
H      -6.654400000000000      1.270620000000000      2.084780000000000
