16

He      0.205450000000000      0.285940000000000      0.277940000000000
C       2.331410000000000      0.551470000000000      0.571200000000000
C       3.120960000000000      1.714530000000000      0.392060000000000
C       3.053360000000000     -0.595550000000000      0.961420000000000
C       4.533600000000000      1.740730000000000      0.547520000000000
C       2.540030000000000      2.981250000000000      0.064630000000000
C       4.433100000000000     -0.585770000000000      1.102600000000000
H       2.532980000000000     -1.539380000000000      1.128110000000000
C       5.188190000000000      0.566440000000000      0.896450000000000
C       5.311140000000000      3.007080000000000      0.339240000000000
N       2.160100000000000      4.051910000000000     -0.179950000000000
Cl      5.248580000000000     -2.067360000000000      1.513950000000000
H       6.273020000000000      0.543030000000000      1.011280000000000
H       4.985270000000000      3.794700000000000      1.036710000000000
H       5.158340000000000      3.409350000000000     -0.674430000000000
H       6.386240000000000      2.838040000000000      0.486550000000000
