22

He      0.264190000000000      0.141890000000000     -0.385550000000000
C       1.658050000000000      1.532360000000000     -1.220180000000000
C       3.000950000000000      1.817270000000000     -0.973000000000000
C       1.265480000000000      2.467580000000000     -2.243300000000000
N       3.387890000000000      2.857740000000000     -1.791670000000000
C       4.029370000000000      1.205990000000000     -0.080770000000000
C       2.342170000000000      3.260020000000000     -2.571550000000000
H       0.270080000000000      2.548010000000000     -2.677360000000000
H       4.313050000000000      3.261600000000000     -1.808380000000000
C       5.250010000000000      0.612600000000000     -0.803680000000000
H       3.556830000000000      0.409590000000000      0.501560000000000
H       4.390740000000000      1.944510000000000      0.661260000000000
H       2.447850000000000      4.070630000000000     -3.290470000000000
H       5.761400000000000      1.434360000000000     -1.341160000000000
C       6.234990000000000      0.039110000000000      0.207330000000000
H       7.137820000000000     -0.358070000000000     -0.282690000000000
H       6.552780000000000      0.797780000000000      0.940250000000000
H       5.769350000000000     -0.789040000000000      0.768970000000000
C       4.842540000000000     -0.430760000000000     -1.834480000000000
H       4.090230000000000     -0.028120000000000     -2.528700000000000
H       5.710170000000000     -0.779510000000000     -2.416540000000000
H       4.398450000000000     -1.309490000000000     -1.340210000000000
