16

He      0.377240000000000     -0.050980000000000     -0.327750000000000
C       2.251960000000000      0.820800000000000     -0.836660000000000
C       3.480960000000000      0.222160000000000     -0.749480000000000
C       2.424130000000000      2.181010000000000     -1.280660000000000
S       4.818240000000000      1.289250000000000     -1.168740000000000
O       3.772260000000000     -1.042590000000000     -0.353230000000000
C       3.713070000000000      2.582100000000000     -1.508430000000000
H       1.578870000000000      2.854580000000000     -1.438640000000000
C       4.200020000000000      3.909780000000000     -1.983050000000000
H       4.733530000000000      3.838260000000000     -2.945390000000000
H       4.887500000000000      4.383880000000000     -1.263220000000000
H       3.342500000000000      4.584000000000000     -2.123470000000000
C       4.261550000000000     -1.888850000000000     -1.363390000000000
H       3.560040000000000     -1.942170000000000     -2.213950000000000
H       5.242140000000000     -1.546150000000000     -1.738850000000000
H       4.377290000000000     -2.890010000000000     -0.924090000000000
