17

He      0.174210000000000     -0.074130000000000     -0.295680000000000
C       2.107360000000000      0.645180000000000     -0.725490000000000
S       3.494090000000000      0.226340000000000      0.242660000000000
C       2.531230000000000      1.491590000000000     -1.730700000000000
C       4.609010000000000      1.156700000000000     -0.706130000000000
C       3.930670000000000      1.768970000000000     -1.728590000000000
H       1.836040000000000      1.917040000000000     -2.457310000000000
C       6.081470000000000      1.143190000000000     -0.411750000000000
H       4.429650000000000      2.406120000000000     -2.463580000000000
H       6.268500000000000      1.472200000000000      0.624720000000000
H       6.562020000000000      1.892490000000000     -1.064810000000000
N       6.757710000000000     -0.129930000000000     -0.596910000000000
H       6.396210000000000     -0.795870000000000      0.083020000000000
C       6.624440000000000     -0.679590000000000     -1.925320000000000
H       7.147550000000000     -1.646750000000000     -1.980630000000000
H       7.107340000000000     -0.006540000000000     -2.653820000000000
H       5.577720000000000     -0.828400000000000     -2.263140000000000
