14

He     -0.199110000000000     -0.186060000000000      0.269600000000000
C      -2.270420000000000      0.139040000000000      0.542120000000000
S      -3.375690000000000     -1.216430000000000      0.637340000000000
C      -2.995140000000000      1.294530000000000      0.652300000000000
C      -4.779730000000000     -0.220110000000000      0.796990000000000
C      -4.423380000000000      1.121760000000000      0.794570000000000
H      -2.530430000000000      2.281650000000000      0.641830000000000
O      -5.951340000000000     -0.845910000000000      0.903110000000000
C      -5.299810000000000      2.236870000000000      0.880280000000000
N      -5.974940000000000      3.181680000000000      0.936860000000000
C      -7.108140000000000     -0.089830000000000      1.180350000000000
H      -6.995310000000000      0.485770000000000      2.113050000000000
H      -7.341840000000000      0.607450000000000      0.360780000000000
H      -7.927410000000000     -0.810900000000000      1.291410000000000
