15

He     -0.081200000000000     -0.009680000000000      0.168840000000000
C      -2.193500000000000     -0.308270000000000     -0.062940000000000
C      -2.713810000000000     -1.615770000000000      0.035020000000000
C      -3.165010000000000      0.667690000000000     -0.318890000000000
C      -4.062170000000000     -1.960770000000000     -0.075890000000000
H      -2.018070000000000     -2.446750000000000      0.175720000000000
C      -4.532120000000000      0.392480000000000     -0.431790000000000
I      -2.668920000000000      2.712480000000000     -0.639640000000000
C      -4.957280000000000     -0.917500000000000     -0.301100000000000
C      -4.544210000000000     -3.375590000000000      0.017980000000000
H      -5.268110000000000      1.173280000000000     -0.626690000000000
F      -6.264990000000000     -1.193330000000000     -0.409010000000000
H      -3.709440000000000     -4.055620000000000      0.238540000000000
H      -5.013070000000000     -3.703060000000000     -0.923950000000000
H      -5.304190000000000     -3.492600000000000      0.806630000000000
