15

He      0.266520000000000      0.390260000000000      0.133980000000000
C       2.345480000000000      1.023060000000000      0.268170000000000
C       2.813440000000000      2.217850000000000     -0.288720000000000
C       3.370530000000000      0.305780000000000      0.916120000000000
C       4.127210000000000      2.663550000000000     -0.262330000000000
F       1.948460000000000      3.049080000000000     -0.911350000000000
Cl      3.011280000000000     -1.213860000000000      1.732580000000000
C       4.724200000000000      0.686530000000000      0.989250000000000
C       5.083900000000000      1.886660000000000      0.375320000000000
H       4.376650000000000      3.613320000000000     -0.739180000000000
C       5.754560000000000     -0.148640000000000      1.688660000000000
H       6.125840000000000      2.214730000000000      0.407070000000000
H       5.832470000000000     -1.151240000000000      1.238760000000000
H       5.495380000000000     -0.303600000000000      2.747660000000000
H       6.742140000000000      0.331130000000000      1.637860000000000
