14

He      0.040880000000000     -0.085390000000000      0.266200000000000
C      -1.964740000000000      0.555920000000000      0.681080000000000
C      -3.071790000000000     -0.127960000000000      0.152820000000000
C      -2.358090000000000      1.645810000000000      1.482250000000000
C      -4.394150000000000      0.244300000000000      0.390270000000000
H      -2.926120000000000     -1.001670000000000     -0.482600000000000
N      -3.600420000000000      2.032210000000000      1.730000000000000
Cl     -1.169430000000000      2.657170000000000      2.273850000000000
C      -4.582550000000000      1.360900000000000      1.201790000000000
C      -5.552510000000000     -0.509300000000000     -0.188090000000000
F      -5.812490000000000      1.781010000000000      1.467570000000000
F      -6.307000000000000      0.258230000000000     -0.979540000000000
F      -6.354600000000000     -1.000910000000000      0.761600000000000
F      -5.138510000000000     -1.549120000000000     -0.927850000000000
