25

He     -0.189810000000000      0.362910000000000      0.359600000000000
C       1.824810000000000      0.894080000000000      0.660960000000000
N       2.249400000000000      2.161160000000000      0.924340000000000
C       3.011870000000000      0.168280000000000      0.577910000000000
N       3.576640000000000      2.312810000000000      1.014870000000000
H       1.662400000000000      2.967270000000000      1.085520000000000
C       4.061280000000000      1.094270000000000      0.801000000000000
H       3.084160000000000     -0.901360000000000      0.394090000000000
C       5.536500000000000      0.841640000000000      0.796730000000000
H       6.018560000000000      1.812820000000000      1.008360000000000
C       6.025620000000000      0.356790000000000     -0.573850000000000
H       5.750780000000000      1.096640000000000     -1.342930000000000
H       5.485970000000000     -0.572830000000000     -0.832810000000000
C       7.527060000000000      0.093510000000000     -0.587560000000000
H       7.841730000000000     -0.281550000000000     -1.575710000000000
H       8.062490000000000      1.048300000000000     -0.433550000000000
C       7.932310000000000     -0.886850000000000      0.508030000000000
H       9.024680000000000     -1.037170000000000      0.507430000000000
H       7.482250000000000     -1.873680000000000      0.293520000000000
C       7.458410000000000     -0.410940000000000      1.877210000000000
H       7.990930000000000      0.521780000000000      2.138990000000000
H       7.724670000000000     -1.147230000000000      2.653620000000000
C       5.956690000000000     -0.148210000000000      1.889390000000000
H       5.414600000000000     -1.098600000000000      1.733440000000000
H       5.634070000000000      0.232100000000000      2.871760000000000
