20

He      0.003060000000000      0.355900000000000      0.210380000000000
C       2.062300000000000      0.817030000000000      0.156690000000000
C       2.672110000000000      1.931100000000000     -0.340190000000000
C       3.176550000000000     -0.011890000000000      0.596590000000000
O       4.045300000000000      1.897500000000000     -0.259440000000000
H       2.285260000000000      2.838580000000000     -0.799700000000000
C       3.292280000000000     -1.285150000000000      1.187790000000000
C       4.341720000000000      0.705950000000000      0.310230000000000
C       4.568600000000000     -1.755340000000000      1.460980000000000
H       2.405290000000000     -1.886570000000000      1.390610000000000
C       5.645040000000000      0.255250000000000      0.573010000000000
C       5.727590000000000     -1.008610000000000      1.171820000000000
H       4.690960000000000     -2.740670000000000      1.918960000000000
N       6.725790000000000      1.033080000000000      0.223430000000000
H       6.705750000000000     -1.427290000000000      1.413690000000000
H       6.500960000000000      2.000270000000000      0.036030000000000
C       8.046730000000000      0.746520000000000      0.692580000000000
H       8.737850000000000      1.520280000000000      0.330880000000000
H       8.407100000000000     -0.220100000000000      0.300820000000000
H       8.125629999999999      0.702840000000000      1.798210000000000
