22

He      0.130200000000000      0.297110000000000      0.188350000000000
C       2.216720000000000      0.658470000000000      0.076560000000000
C       2.906830000000000      1.533570000000000     -0.758460000000000
N       3.194040000000000     -0.027130000000000      0.782800000000000
C       4.300050000000000      1.371520000000000     -0.547260000000000
H       2.461050000000000      2.213240000000000     -1.481570000000000
C       4.460140000000000      0.397130000000000      0.417650000000000
C       2.932220000000000     -1.043680000000000      1.770550000000000
H       5.104320000000000      1.907870000000000     -1.047740000000000
C       5.719510000000000     -0.099330000000000      1.067650000000000
H       2.441370000000000     -0.621500000000000      2.662740000000000
H       3.874950000000000     -1.504590000000000      2.087850000000000
H       2.291340000000000     -1.830240000000000      1.348280000000000
H       5.651010000000000     -1.198720000000000      1.171380000000000
C       6.939600000000000      0.186700000000000      0.198920000000000
H       7.849910000000000     -0.232750000000000      0.654600000000000
H       6.823030000000000     -0.242480000000000     -0.806990000000000
H       7.095360000000000      1.271200000000000      0.085650000000000
C       5.909240000000000      0.491390000000000      2.469130000000000
H       5.049530000000000      0.280230000000000      3.122360000000000
H       6.812830000000000      0.088080000000000      2.955300000000000
H       6.011170000000000      1.586120000000000      2.403910000000000
