18

He      0.058670000000000     -0.147790000000000      0.323360000000000
C      -2.010660000000000      0.144330000000000      0.600120000000000
S      -3.202320000000000     -0.875910000000000     -0.155520000000000
C      -2.667540000000000      1.148940000000000      1.277500000000000
C      -4.562620000000000      0.027500000000000      0.424810000000000
C      -4.086970000000000      1.070870000000000      1.177850000000000
H      -2.155480000000000      1.949380000000000      1.812270000000000
C      -5.986470000000000     -0.369460000000000      0.172100000000000
Cl     -5.136670000000000      2.223280000000000      1.943320000000000
H      -6.573410000000000      0.562410000000000      0.247890000000000
C      -6.188830000000000     -0.952800000000000     -1.222860000000000
H      -7.250220000000000     -1.186510000000000     -1.398910000000000
H      -5.853540000000000     -0.251930000000000     -2.001720000000000
H      -5.617480000000000     -1.887990000000000     -1.345910000000000
C      -6.488090000000000     -1.322030000000000      1.260110000000000
H      -6.381770000000000     -0.863930000000000      2.254240000000000
H      -7.549380000000000     -1.576870000000000      1.107130000000000
H      -5.904400000000000     -2.256550000000000      1.254080000000000
