22

He     -0.100760000000000      0.106510000000000     -0.432690000000000
C      -2.208150000000000     -0.083800000000000     -1.004460000000000
C      -3.205260000000000      0.868140000000000     -0.684950000000000
C      -2.702500000000000     -1.338400000000000     -1.473430000000000
C      -2.919480000000000      2.320680000000000     -0.544170000000000
C      -4.576800000000000      0.565890000000000     -0.631320000000000
C      -4.088120000000000     -1.615570000000000     -1.458260000000000
C      -1.802960000000000     -2.417630000000000     -2.010450000000000
O      -2.249550000000000      2.976650000000000     -1.305100000000000
O      -3.598010000000000      2.881880000000000      0.471410000000000
C      -5.028080000000000     -0.682840000000000     -0.999860000000000
H      -5.282160000000000      1.337640000000000     -0.319540000000000
C      -4.586030000000000     -2.889950000000000     -1.887340000000000
C      -3.560620000000000      4.293170000000000      0.537440000000000
H      -6.087700000000000     -0.940390000000000     -0.969020000000000
N      -5.019810000000000     -3.915100000000000     -2.216930000000000
H      -3.927020000000000      4.740360000000000     -0.398910000000000
H      -2.537560000000000      4.653150000000000      0.714860000000000
H      -4.208820000000000      4.580330000000000      1.374090000000000
H      -1.250230000000000     -2.905040000000000     -1.192210000000000
H      -1.075010000000000     -1.995890000000000     -2.716850000000000
H      -2.374520000000000     -3.192020000000000     -2.538710000000000
