20

He     -0.118820000000000     -0.016750000000000      0.329570000000000
C      -2.035190000000000      0.853120000000000      0.790490000000000
C      -3.324030000000000      0.337530000000000      0.552990000000000
C      -2.049500000000000      2.114300000000000      1.413740000000000
C      -4.519900000000000      1.020800000000000      0.899080000000000
S      -3.794890000000000     -1.189700000000000     -0.171700000000000
C      -3.209250000000000      2.831650000000000      1.768900000000000
H      -1.091980000000000      2.600340000000000      1.619870000000000
N      -5.698270000000000      0.368930000000000      0.603410000000000
C      -4.455030000000000      2.279060000000000      1.506690000000000
C      -5.483370000000000     -0.777660000000000      0.054880000000000
C      -3.073760000000000      4.182910000000000      2.412860000000000
H      -5.384080000000000      2.793640000000000      1.761280000000000
C      -6.555730000000000     -1.717890000000000     -0.377330000000000
H      -6.492070000000000     -1.931050000000000     -1.455890000000000
H      -7.528860000000000     -1.259340000000000     -0.160090000000000
H      -6.485850000000000     -2.678810000000000      0.156320000000000
H      -4.054940000000000      4.633970000000000      2.618800000000000
H      -2.511870000000000      4.877150000000000      1.766380000000000
H      -2.523220000000000      4.119660000000000      3.365320000000000
