24

He     -0.030470000000000     -0.137970000000000      0.194290000000000
C      -2.130090000000000      0.287340000000000      0.242850000000000
C      -3.066230000000000     -0.664410000000000     -0.154080000000000
C      -2.675460000000000      1.515830000000000      0.716890000000000
C      -4.467860000000000     -0.499520000000000     -0.099220000000000
H      -2.728790000000000     -1.630500000000000     -0.539820000000000
C      -4.082280000000000      1.694640000000000      0.759010000000000
C      -2.001770000000000      2.700450000000000      1.191110000000000
C      -4.984350000000000      0.702980000000000      0.361010000000000
C      -5.342550000000000     -1.671950000000000     -0.499970000000000
S      -4.520610000000000      3.269480000000000      1.358110000000000
C      -2.851910000000000      3.696050000000000      1.558640000000000
H      -0.918430000000000      2.809730000000000      1.209710000000000
H      -6.059430000000000      0.882080000000000      0.416000000000000
H      -2.590910000000000      4.682870000000000      1.939810000000000
H      -4.885400000000000     -2.105030000000000     -1.408900000000000
C      -5.309900000000000     -2.752390000000000      0.585030000000000
H      -5.882350000000000     -3.643460000000000      0.279180000000000
H      -4.278230000000000     -3.064340000000000      0.808240000000000
H      -5.747640000000000     -2.368840000000000      1.520690000000000
C      -6.776630000000000     -1.292540000000000     -0.843580000000000
H      -6.814080000000000     -0.505500000000000     -1.611730000000000
H      -7.328720000000000     -2.166710000000000     -1.222000000000000
H      -7.319240000000000     -0.925150000000000      0.042270000000000
