16

He      0.218650000000000      0.012500000000000     -0.456860000000000
C       1.811420000000000      0.972970000000000     -1.415230000000000
O       3.034240000000000      0.354070000000000     -1.386050000000000
C       1.964810000000000      2.150270000000000     -2.111780000000000
C       3.946860000000000      1.115460000000000     -2.046730000000000
C       3.331660000000000      2.241480000000000     -2.515550000000000
H       1.160920000000000      2.856410000000000     -2.309740000000000
C       5.349520000000000      0.626100000000000     -2.073540000000000
H       3.809930000000000      3.038650000000000     -3.082440000000000
O       6.157770000000000      1.042400000000000     -0.995110000000000
H       5.847460000000000      1.000770000000000     -2.978880000000000
H       5.332030000000000     -0.482660000000000     -2.126230000000000
C       5.718500000000000      0.586750000000000      0.244230000000000
H       4.727930000000000      0.992510000000000      0.522020000000000
H       5.642460000000000     -0.520250000000000      0.276440000000000
H       6.451820000000000      0.907080000000000      0.999060000000000
