28

He     -0.417040000000000     -0.013080000000000      0.150310000000000
C       1.583030000000000      0.712990000000000      0.021890000000000
C       1.846180000000000      2.070590000000000      0.276240000000000
C       2.730170000000000     -0.027740000000000     -0.292710000000000
C       3.147390000000000      2.563980000000000      0.237000000000000
H       1.032090000000000      2.768200000000000      0.477420000000000
C       4.030840000000000      0.527720000000000     -0.310900000000000
Br      2.557320000000000     -1.874680000000000     -0.748810000000000
C       3.373110000000000      3.965200000000000      0.498480000000000
N       4.214920000000000      1.814270000000000     -0.035530000000000
C       5.274650000000000     -0.286300000000000     -0.574190000000000
N       3.504130000000000      5.096480000000000      0.715260000000000
H       5.013460000000000     -1.077730000000000     -1.296820000000000
C       5.729960000000000     -0.979560000000000      0.719650000000000
H       4.909870000000000     -1.597730000000000      1.119450000000000
H       5.938080000000000     -0.197940000000000      1.472190000000000
C       6.975820000000000     -1.826850000000000      0.491830000000000
H       7.301440000000000     -2.284370000000000      1.440660000000000
H       6.721940000000000     -2.662770000000000     -0.185270000000000
C       8.105650000000001     -1.007540000000000     -0.121950000000000
H       8.982020000000000     -1.646880000000000     -0.318220000000000
H       8.433310000000001     -0.243230000000000      0.605920000000000
C       7.652500000000000     -0.312560000000000     -1.401490000000000
H       7.431550000000000     -1.076490000000000     -2.169560000000000
H       8.466989999999999      0.308060000000000     -1.809010000000000
C       6.413280000000000      0.542740000000000     -1.165140000000000
H       6.644740000000000      1.369510000000000     -0.474840000000000
H       6.079980000000000      1.016140000000000     -2.102530000000000
