18

He      0.224900000000000      0.016260000000000     -0.398380000000000
C       1.941650000000000      0.964480000000000     -1.123260000000000
O       3.143200000000000      0.312890000000000     -0.959700000000000
C       2.210250000000000      2.155510000000000     -1.751940000000000
C       4.146790000000000      1.068930000000000     -1.468440000000000
C       3.624190000000000      2.223550000000000     -1.976130000000000
H       1.457860000000000      2.895530000000000     -2.017410000000000
C       5.526340000000000      0.511980000000000     -1.343760000000000
H       4.182550000000000      3.027340000000000     -2.451610000000000
H       5.539980000000000     -0.456800000000000     -1.880420000000000
C       6.552550000000000      1.427820000000000     -1.996160000000000
H       7.561810000000000      0.993890000000000     -1.930420000000000
H       6.321530000000000      1.597500000000000     -3.058330000000000
H       6.574200000000000      2.408780000000000     -1.494940000000000
C       5.872210000000000      0.226800000000000      0.119460000000000
H       5.116880000000000     -0.425880000000000      0.580180000000000
H       6.855580000000000     -0.262610000000000      0.206200000000000
H       5.901470000000000      1.164310000000000      0.697830000000000
