21

He      0.029070000000000     -0.270580000000000      0.072910000000000
C      -2.097490000000000     -0.271300000000000      0.215450000000000
C      -2.893300000000000      0.264120000000000     -0.812190000000000
C      -2.827560000000000     -0.757760000000000      1.307700000000000
C      -4.275050000000000      0.298180000000000     -0.736780000000000
H      -2.439680000000000      0.708760000000000     -1.700400000000000
C      -4.221610000000000     -0.731520000000000      1.385870000000000
Cl     -2.009300000000000     -1.434450000000000      2.709610000000000
C      -4.991990000000000     -0.195560000000000      0.353380000000000
F      -4.958690000000000      0.846420000000000     -1.758830000000000
H      -4.703780000000000     -1.137240000000000      2.276130000000000
C      -6.500190000000000     -0.084510000000000      0.388520000000000
H      -6.854900000000000     -0.323920000000000     -0.629120000000000
C      -7.158270000000000     -1.059680000000000      1.355220000000000
H      -8.253909999999999     -1.006910000000000      1.264550000000000
H      -6.849010000000000     -2.097690000000000      1.160000000000000
H      -6.907920000000000     -0.823590000000000      2.401870000000000
C      -6.920260000000000      1.357450000000000      0.686800000000000
H      -6.488350000000000      2.053180000000000     -0.046630000000000
H      -8.016489999999999      1.463840000000000      0.656130000000000
H      -6.574600000000000      1.660530000000000      1.688020000000000
