17

He     -0.085900000000000     -0.083910000000000      0.291330000000000
C      -2.116550000000000      0.568490000000000      0.603640000000000
C      -3.314980000000000     -0.149200000000000      0.431800000000000
C      -2.315480000000000      1.901680000000000      1.005880000000000
C      -4.609470000000000      0.407940000000000      0.620830000000000
S      -3.537630000000000     -1.828930000000000     -0.016050000000000
C      -3.583750000000000      2.469570000000000      1.177420000000000
H      -1.454830000000000      2.552440000000000      1.166880000000000
N      -5.672080000000000     -0.444490000000000      0.415910000000000
C      -4.750180000000000      1.749430000000000      0.991420000000000
C      -5.275610000000000     -1.626540000000000      0.086870000000000
Cl     -3.678950000000000      4.158910000000000      1.604020000000000
H      -5.738980000000000      2.187980000000000      1.121680000000000
C      -6.187700000000000     -2.770010000000000     -0.196390000000000
H      -6.044280000000000     -3.152910000000000     -1.218820000000000
H      -7.223530000000000     -2.425250000000000     -0.085100000000000
H      -6.010950000000000     -3.604730000000000      0.499820000000000
