19

He     -0.028630000000000     -0.024140000000000     -0.097970000000000
C       2.040830000000000     -0.417310000000000      0.364990000000000
C       2.487380000000000     -1.741560000000000      0.271000000000000
C       3.062660000000000      0.538730000000000      0.607790000000000
N       3.767120000000000     -2.121560000000000      0.334480000000000
H       1.773670000000000     -2.562220000000000      0.174120000000000
C       2.695090000000000      1.893890000000000      1.168470000000000
C       4.433250000000000      0.190780000000000      0.469590000000000
C       4.681580000000000     -1.204770000000000      0.385830000000000
F       2.234650000000000      2.768410000000000      0.245590000000000
F       1.745660000000000      1.797190000000000      2.105160000000000
F       3.721020000000000      2.501460000000000      1.775270000000000
N       5.485620000000000      1.063070000000000      0.415580000000000
Cl      6.361770000000000     -1.739180000000000      0.360590000000000
H       6.379090000000000      0.586480000000000      0.425430000000000
C       5.467620000000000      2.332540000000000     -0.265260000000000
H       5.553710000000000      3.190780000000000      0.419680000000000
H       4.530210000000000      2.453720000000000     -0.828830000000000
H       6.298510000000000      2.381330000000000     -0.987670000000000
