12

He     -0.209830000000000     -0.256670000000000      0.117410000000000
C      -2.378290000000000     -0.256400000000000      0.281690000000000
C      -3.203750000000000     -1.178550000000000     -0.372640000000000
C      -3.128480000000000      0.643020000000000      1.063110000000000
C      -4.592200000000000     -1.230320000000000     -0.323130000000000
F      -2.647050000000000     -2.140890000000000     -1.135250000000000
Cl     -2.353090000000000      1.891630000000000      2.023260000000000
C      -4.522410000000000      0.653140000000000      1.169210000000000
C      -5.250490000000000     -0.291730000000000      0.459600000000000
H      -5.131880000000000     -1.993810000000000     -0.883280000000000
H      -5.025570000000000      1.388290000000000      1.796050000000000
Cl     -6.982010000000000     -0.305790000000000      0.558900000000000
