21

He     -0.054580000000000      0.336650000000000      0.110940000000000
C       2.112780000000000      0.546140000000000      0.144750000000000
C       2.778470000000000      1.658300000000000     -0.383750000000000
C       3.030770000000000     -0.388920000000000      0.663260000000000
C       4.154610000000000      1.838640000000000     -0.459550000000000
F       2.059490000000000      2.690570000000000     -0.877230000000000
Br      2.461260000000000     -2.005120000000000      1.526890000000000
C       4.420860000000000     -0.261190000000000      0.621940000000000
C       5.010490000000000      0.862180000000000      0.041580000000000
H       4.538750000000000      2.755490000000000     -0.912970000000000
H       5.040010000000000     -1.052080000000000      1.048700000000000
C       6.514300000000000      1.014050000000000     -0.038310000000000
H       6.708610000000000      1.986220000000000     -0.523470000000000
C       7.155380000000000      1.052100000000000      1.348220000000000
H       8.241250000000001      1.222790000000000      1.274990000000000
H       6.721640000000000      1.853100000000000      1.965310000000000
H       7.003230000000000      0.100890000000000      1.882650000000000
C       7.139220000000000     -0.073010000000000     -0.912290000000000
H       6.693200000000000     -0.079440000000000     -1.918070000000000
H       8.225099999999999      0.080750000000000     -1.016860000000000
H       6.983690000000000     -1.071600000000000     -0.473780000000000
