28

C  0.649830 0.725410 -0.991690
C  1.608020 1.236510 -1.880950
C  -0.551380 1.429060 -0.769310
C  1.382930 2.431450 -2.560630
H  2.540820 0.689640 -2.045630
C  -0.753030 2.634600 -1.460880
C  -1.613620 0.887850 0.159740
C  0.196360 3.132920 -2.346960
H  2.134450 2.814960 -3.255450
H  -1.680600 3.191360 -1.301760
H  0.010990 4.072940 -2.872150
Pd  0.986720 -0.998360 -0.123000
H  -1.155780 0.041550 0.704600
C  -2.798240 0.309780 -0.624020
H  -2.422020 -0.442050 -1.333150
H  -3.265130 1.117030 -1.217850
C  -3.830840 -0.306500 0.311740
H  -4.689830 -0.684460 -0.266350
H  -3.379520 -1.185790 0.806650
C  -4.297190 0.685500 1.371840
H  -5.010070 0.206700 2.062850
H  -4.847400 1.508320 0.879600
C  -3.119170 1.268200 2.145720
H  -2.634120 0.463360 2.727530
H  -3.469620 2.012450 2.879350
C  -2.090050 1.894450 1.210730
H  -2.540770 2.770520 0.711030
H  -1.227210 2.274450 1.783430
