27

C  -0.233810 0.028910 -0.131860
C  0.416890 -0.923930 0.628270
C  0.619130 0.833030 -0.910930
C  1.810380 -1.076930 0.639360
O  -0.140430 -1.797490 1.510590
C  2.003460 0.675830 -0.897560
H  0.202200 1.606700 -1.558280
C  2.689530 -0.295210 -0.112360
O  2.108750 -2.067800 1.532670
C  0.885080 -2.703450 1.834200
Cl  2.848940 1.788370 -1.951700
C  4.218500 -0.461740 -0.086230
H  0.849560 -2.945590 2.906290
H  0.781290 -3.622900 1.222500
Pd  -2.190510 0.134540 -0.218680
C  4.682490 -1.580000 0.855820
H  5.781450 -1.627090 0.815070
H  4.387630 -1.397280 1.897310
H  4.288790 -2.561690 0.562120
C  4.724850 -0.832580 -1.490100
H  4.484840 -0.073500 -2.243630
H  5.819360 -0.953980 -1.465270
H  4.286100 -1.788900 -1.813560
C  4.873490 0.835470 0.416700
H  5.967790 0.711430 0.435320
H  4.641330 1.701120 -0.214660
H  4.541850 1.057770 1.442690
