22

C  0.232310 -0.256620 -0.396080
C  0.481550 -1.457000 0.286690
C  1.281730 0.276030 -1.147090
C  1.746810 -2.102480 0.243340
S  -0.637640 -2.328030 1.298220
C  2.540740 -0.350260 -1.222010
H  1.134860 1.219770 -1.681970
C  2.772910 -1.529000 -0.521790
C  1.759230 -3.292990 1.047610
C  0.565690 -3.519790 1.660210
C  3.660020 0.267400 -2.027880
H  3.762190 -1.992110 -0.555270
H  2.628510 -3.943330 1.153950
H  0.310760 -4.351550 2.316910
Pd  -1.499400 0.636420 -0.245060
H  3.346640 1.269070 -2.386720
H  3.864850 -0.347630 -2.918910
O  4.870330 0.342190 -1.328230
C  4.843720 1.248920 -0.267310
H  4.653750 2.283260 -0.619320
H  4.069870 0.997770 0.483130
H  5.827860 1.222580 0.220710
