17

C  0.559540 -0.331740 0.046510
C  0.969950 -1.021070 1.229880
C  1.464290 -0.027420 -0.972890
C  2.303150 -1.397400 1.378190
C  -0.031250 -1.346360 2.303240
C  2.785320 -0.432770 -0.789690
H  1.161960 0.501710 -1.878910
C  3.217350 -1.102230 0.358270
H  2.624740 -1.921450 2.281770
O  3.823560 -0.251250 -1.623710
C  4.613020 -1.288300 0.096540
N  4.952490 -0.790940 -1.056850
H  5.374220 -1.768850 0.711130
Pd  -1.323960 0.141880 -0.217510
H  -0.505560 -0.434760 2.701900
H  0.442150 -1.877050 3.141060
H  -0.840620 -1.970760 1.895940
