42

C  0.274890 0.275880 0.001660
C  0.168480 -1.079190 -0.329150
C  1.539670 0.895670 0.174280
C  1.393550 -1.771380 -0.465740
C  -1.163510 -1.749380 -0.545940
C  2.759030 0.233290 0.056100
H  1.547210 1.963530 0.397570
C  2.620670 -1.126180 -0.271670
C  1.802830 -3.108500 -0.793240
C  4.118390 0.895920 0.240590
O  3.621330 -2.009880 -0.461180
H  1.197230 -3.980190 -1.036620
N  3.096390 -3.233390 -0.786250
Pd  -1.280620 1.475430 0.124460
C  3.976270 2.376900 0.589110
H  4.975070 2.821310 0.714940
H  3.459790 2.937110 -0.205090
H  3.425520 2.525540 1.530680
C  4.871500 0.190350 1.378920
H  5.024660 -0.875830 1.161760
H  5.860070 0.654470 1.522440
H  4.315860 0.273530 2.325900
C  4.916440 0.772420 -1.066830
H  5.904000 1.246610 -0.952020
H  5.074020 -0.278500 -1.346020
H  4.390260 1.274130 -1.893320
H  -1.932740 -0.988550 -0.327970
C  -1.419730 -2.928600 0.400550
H  -1.267670 -2.612740 1.445600
H  -0.675290 -3.722850 0.220790
C  -2.819130 -3.498090 0.199420
H  -2.982250 -4.356580 0.871220
H  -3.564340 -2.732300 0.482470
C  -3.046040 -3.907170 -1.252430
H  -4.072340 -4.284410 -1.388710
H  -2.372010 -4.748090 -1.498400
C  -2.773390 -2.750520 -2.208470
H  -3.522050 -1.955650 -2.039540
H  -2.899950 -3.077400 -3.253120
C  -1.379430 -2.167150 -2.006050
H  -0.618660 -2.913070 -2.296480
H  -1.223410 -1.293870 -2.658880
