26

C  0.680230 0.205160 -0.378970
C  1.396670 -0.715130 -1.156850
C  1.322010 1.441940 -0.149830
C  2.665800 -0.498570 -1.700640
O  0.991540 -1.963790 -1.472000
C  2.614140 1.662510 -0.703810
C  0.642190 2.574990 0.640060
C  3.292920 0.730630 -1.469860
C  2.941480 -1.737140 -2.363560
N  1.961110 -2.579940 -2.220720
H  3.102650 2.617860 -0.519480
H  4.284710 0.952010 -1.868840
H  3.820810 -2.036370 -2.934350
Pd  -1.130270 -0.385210 0.140380
C  1.607290 3.719060 0.967630
H  1.080540 4.473090 1.571530
H  2.476360 3.373800 1.549250
H  1.973180 4.229520 0.064520
C  -0.498590 3.143490 -0.217630
H  -1.236890 2.373640 -0.480190
H  -1.011820 3.954550 0.323940
H  -0.104110 3.557260 -1.158450
C  0.084540 2.062110 1.973880
H  -0.391650 2.888370 2.523720
H  -0.680460 1.283370 1.825900
H  0.884010 1.650390 2.610290
