30

C  0.796180 0.326790 -0.403560
C  0.860250 -1.051000 -0.051940
C  1.912480 1.008280 -0.911700
C  2.057360 -1.759290 -0.216880
C  -0.372800 -1.762700 0.462490
C  3.071190 0.264930 -1.066280
H  1.873150 2.066140 -1.178670
C  3.166700 -1.091860 -0.730550
H  2.131780 -2.816760 0.043810
O  4.289810 0.652920 -1.530990
N  4.460690 -1.519990 -0.998630
C  5.045860 -0.471040 -1.455560
H  6.078120 -0.374750 -1.791190
Pd  -0.892940 1.314620 -0.253720
H  -1.112400 -0.977520 0.708160
C  -0.137350 -2.571870 1.740440
H  0.294620 -1.923260 2.521110
H  0.607720 -3.364310 1.548170
C  -1.430800 -3.213230 2.231670
H  -1.238700 -3.810310 3.137940
H  -2.137690 -2.417080 2.528490
C  -2.073580 -4.075530 1.150360
H  -3.024030 -4.499540 1.513270
H  -1.412720 -4.934960 0.934730
C  -2.296410 -3.283710 -0.133540
H  -3.046000 -2.492240 0.050090
H  -2.718770 -3.932730 -0.917890
C  -1.009900 -2.633320 -0.627580
H  -0.286970 -3.413230 -0.929630
H  -1.206720 -2.010460 -1.512490
