20

C  -0.353490 -0.388680 -0.429510
C  -0.714570 -1.428470 -1.456530
C  -1.513030 -0.074250 0.207490
H  -0.400830 -1.141260 -2.476870
H  -0.168690 -2.364150 -1.235030
C  -2.194740 -1.591680 -1.332550
Cl  -1.681810 1.048760 1.517180
C  -2.669820 -0.799440 -0.343700
H  -2.788370 -2.252940 -1.964790
C  -4.071290 -0.660070 0.174700
Pd  1.504340 0.014600 0.002070
H  -4.233060 0.417110 0.362880
C  -5.112050 -1.136550 -0.829300
H  -6.128660 -0.963380 -0.445170
H  -5.014620 -0.613280 -1.792240
H  -5.012820 -2.217310 -1.019560
C  -4.220360 -1.385340 1.515660
H  -3.486700 -1.025140 2.250880
H  -5.226920 -1.228270 1.933770
H  -4.067360 -2.468110 1.384160
