19

C  0.321480 -0.565360 -0.319490
C  1.558110 -0.259750 0.366670
C  0.640970 -1.522440 -1.262420
C  2.574180 -1.055930 -0.224760
C  1.903980 0.609550 1.415980
H  -0.012500 -2.042060 -1.961240
N  1.983670 -1.812770 -1.206350
C  3.919250 -1.010620 0.177320
C  3.227030 0.665300 1.825010
H  1.136310 1.215460 1.902530
H  2.462740 -2.470700 -1.803360
C  4.215180 -0.130340 1.212900
C  4.952560 -1.871620 -0.483330
H  3.514060 1.329770 2.643490
H  5.248830 -0.061640 1.563080
Pd  -1.476680 0.095440 0.077050
H  5.023180 -1.663330 -1.564730
H  4.716440 -2.943770 -0.372450
H  5.947310 -1.704800 -0.048280
