25

C  0.490100 0.384610 -0.078770
C  1.761450 0.117000 -0.713640
C  0.585890 1.651990 0.474930
C  2.585130 1.254090 -0.493110
C  2.285450 -0.970950 -1.429340
C  -0.450650 2.459460 1.194730
N  1.841800 2.161400 0.220270
C  3.901860 1.319840 -0.955100
C  3.592780 -0.907500 -1.892780
H  1.662250 -1.847330 -1.623760
H  2.177120 3.056600 0.545890
C  4.393040 0.225770 -1.656650
H  4.523880 2.199940 -0.774600
H  4.008230 -1.746010 -2.456680
H  5.417780 0.248270 -2.034800
Pd  -1.127740 -0.715110 -0.174880
H  -1.279240 1.761280 1.391310
C  0.060890 2.998800 2.529920
H  -0.743600 3.519740 3.070870
H  0.438430 2.190490 3.174450
H  0.877250 3.727940 2.392040
C  -0.994960 3.571960 0.296070
H  -1.434030 3.140720 -0.613740
H  -1.775360 4.145430 0.820520
H  -0.200160 4.277780 0.003770
