28

C  0.538740 0.303330 -0.154060
C  1.727720 -0.164060 -0.831750
C  0.814790 1.596040 0.279430
C  2.686470 0.880220 -0.770660
C  2.075650 -1.368410 -1.464350
C  -0.053710 2.624290 0.974200
N  2.100090 1.924390 -0.104040
C  3.968690 0.748850 -1.310730
C  3.346700 -1.502130 -2.005920
H  1.347320 -2.180380 -1.531980
H  2.563020 2.787910 0.137630
C  4.283830 -0.454310 -1.928980
H  4.696640 1.561660 -1.251970
H  3.626480 -2.432340 -2.505970
H  5.276280 -0.588310 -2.365690
Pd  -1.135410 -0.722450 -0.128040
C  -0.993410 1.943120 1.972380
H  -1.630990 2.695350 2.462110
H  -1.650420 1.219780 1.466420
H  -0.432060 1.409180 2.755080
C  0.809750 3.638560 1.734210
H  1.431220 4.247800 1.057240
H  0.162930 4.342870 2.278160
H  1.466520 3.147390 2.469500
C  -0.883000 3.357910 -0.093100
H  -1.504050 4.137970 0.377080
H  -0.226930 3.843480 -0.832140
H  -1.537570 2.652810 -0.624270
