18

C  -0.538080 -0.526990 0.277880
C  -1.692720 -0.455660 -0.568050
C  -0.638150 -1.255340 1.449440
C  -2.898760 -1.129840 -0.192200
C  -1.684110 0.278960 -1.783200
C  -1.823620 -1.931000 1.830670
Cl  0.718250 -1.356110 2.537760
C  -2.927820 -1.866460 1.020680
C  -4.033420 -1.042570 -1.037300
C  -2.803040 0.346530 -2.581800
H  -0.760650 0.783290 -2.078560
H  -1.836410 -2.490480 2.767510
H  -3.847900 -2.382110 1.306430
H  -4.947790 -1.563330 -0.740870
C  -3.990320 -0.319790 -2.206800
H  -2.771040 0.913680 -3.515020
H  -4.872320 -0.262050 -2.848850
Pd  1.170280 0.295690 -0.246360
