31

C  1.159450 0.822940 -0.723020
C  1.818260 -0.447070 -0.493060
C  2.128370 1.646470 -1.271470
C  3.170490 -0.296600 -0.907510
C  1.436970 -1.709230 0.010220
H  2.041260 2.678260 -1.608830
N  3.324000 0.980150 -1.376570
N  4.132480 -1.208020 -0.857930
C  2.443020 -2.673150 0.056480
C  0.025350 -1.957100 0.466900
H  4.196860 1.350470 -1.726680
C  3.749500 -2.381980 -0.375060
H  2.227450 -3.677240 0.424810
H  4.518490 -3.161070 -0.322710
Pd  -0.756550 1.231540 -0.568580
H  -0.619700 -1.402970 -0.236440
C  -0.225420 -1.370690 1.864160
H  0.108410 -0.321890 1.894220
H  0.397430 -1.916280 2.596010
C  -1.698120 -1.473830 2.242810
H  -1.861670 -1.072770 3.256590
H  -2.285520 -0.836280 1.556850
C  -2.196680 -2.912470 2.154340
H  -3.275540 -2.959390 2.374780
H  -1.694470 -3.516580 2.931960
C  -1.905860 -3.524490 0.787710
H  -2.501560 -2.999000 0.019000
H  -2.228220 -4.578060 0.763150
C  -0.427990 -3.414550 0.425620
H  0.162780 -4.014790 1.141100
H  -0.241100 -3.838440 -0.574150
