18

C  0.509200 -0.464080 0.825510
C  -0.801680 -0.287110 0.252420
C  0.294550 -1.214310 1.969140
C  -1.744280 -0.943260 1.103790
C  -1.355450 0.344280 -0.866030
H  1.027970 -1.596800 2.677050
N  -1.039810 -1.493810 2.135160
N  -3.053260 -1.007920 0.946280
C  -2.730840 0.288520 -1.066110
Cl  -0.359540 1.189590 -1.994590
H  -1.461750 -2.014210 2.892770
C  -3.521720 -0.396120 -0.131720
H  -3.184380 0.767350 -1.932380
C  -5.022190 -0.475040 -0.307050
Pd  2.279950 -0.067080 0.063660
F  -5.658670 0.079310 0.724730
F  -5.433420 -1.738670 -0.400130
F  -5.418610 0.161790 -1.414430
