20

C  0.044090 -0.462560 0.783510
C  -1.223890 -0.310440 0.108690
C  -0.249130 -1.144600 1.948880
C  -2.224620 -0.916100 0.914690
C  -1.703380 0.267770 -1.076830
H  0.425500 -1.493510 2.728110
N  -1.601780 -1.411730 2.022090
N  -3.527250 -0.997910 0.669960
C  -3.050190 0.209290 -1.374210
Cl  -0.621430 1.064440 -2.168340
H  -2.083700 -1.886060 2.773080
C  -3.936880 -0.439310 -0.465370
H  -3.427450 0.659410 -2.293190
N  -5.272700 -0.480980 -0.743990
Pd  1.845830 -0.056160 0.118970
H  -5.552420 -0.226310 -1.679020
C  -6.193750 -1.231010 0.062660
H  -7.218820 -1.019370 -0.270560
H  -6.099940 -0.939110 1.118640
H  -6.021230 -2.321930 0.011710
