31

C  0.929500 -0.640620 -0.580070
C  1.070140 -1.755420 -1.444700
C  -0.368250 -0.258390 -0.229030
H  2.078150 -2.090740 -1.711330
N  0.062850 -2.445120 -1.966000
C  -1.473140 -0.959980 -0.733820
Cl  -0.606080 1.111090 0.821370
C  -1.144740 -2.040000 -1.606290
C  -2.910550 -0.900670 -0.646760
N  -2.318820 -2.595960 -2.023380
C  -3.368560 -1.918680 -1.453130
C  -3.743440 0.029890 0.183610
H  -2.376470 -3.381870 -2.655180
H  -4.393980 -2.211960 -1.666020
Pd  2.558210 0.157900 0.191950
H  -3.294440 1.036080 0.103670
C  -3.714280 -0.357640 1.669940
H  -2.672050 -0.408940 2.019620
H  -4.131210 -1.376080 1.770400
C  -4.514680 0.620020 2.521590
H  -4.500730 0.303730 3.577180
H  -4.022360 1.608980 2.488600
C  -5.949490 0.753930 2.023650
H  -6.497780 1.501450 2.619770
H  -6.474600 -0.207310 2.172370
C  -5.991340 1.119930 0.543790
H  -5.572030 2.133310 0.408030
H  -7.033280 1.166200 0.187540
C  -5.190150 0.134610 -0.300120
H  -5.667620 -0.860580 -0.235430
H  -5.211060 0.425970 -1.363020
