20

C  0.519130 -0.260030 0.343800
C  1.639080 0.374420 -0.203320
C  0.802930 -1.310150 1.237830
C  2.940750 -0.040090 0.110850
H  1.485320 1.223420 -0.876390
N  2.007960 -1.718470 1.555230
Cl  -0.519270 -2.162330 2.002850
C  3.053190 -1.105150 1.005180
C  4.159650 0.637340 -0.468810
H  4.043260 -1.476980 1.295320
Pd  -1.263490 0.454830 -0.057570
H  5.038800 0.100060 -0.072520
C  4.194000 0.525650 -1.992480
H  5.116490 0.971040 -2.395920
H  4.150060 -0.524390 -2.318470
H  3.343300 1.055930 -2.449900
C  4.255910 2.092250 -0.009790
H  4.264510 2.164730 1.087770
H  5.174690 2.562590 -0.393180
H  3.400260 2.682190 -0.375280
