27

C  0.377310 -0.659950 -0.630370
C  -0.916970 -0.288550 -0.255860
C  0.520560 -1.833870 -1.387570
C  -2.007740 -1.088560 -0.614490
H  -1.069740 0.641970 0.299300
N  -0.506110 -2.601280 -1.743370
H  1.510960 -2.161300 -1.726360
C  -1.725890 -2.237910 -1.361510
C  -3.419560 -0.729200 -0.233090
H  -2.550150 -2.894700 -1.668760
Pd  1.873200 0.513510 -0.169060
H  -4.076430 -1.528290 -0.624270
C  -3.871570 0.588910 -0.875180
H  -3.759880 0.523630 -1.969310
H  -3.196380 1.398460 -0.544450
C  -5.306600 0.938270 -0.497990
H  -5.591360 1.903130 -0.947810
H  -5.988950 0.182950 -0.928750
C  -5.494570 0.977990 1.014590
H  -6.545090 1.195430 1.266720
H  -4.896390 1.808530 1.431820
C  -5.051730 -0.329960 1.661210
H  -5.721320 -1.144250 1.329270
H  -5.154560 -0.273490 2.757020
C  -3.616160 -0.680590 1.287260
H  -2.932500 0.076450 1.712170
H  -3.322510 -1.646460 1.729490
