22

C  0.165320 -0.235100 -0.730820
C  0.520400 -1.340690 -1.519560
C  1.206170 0.616370 -0.383950
N  1.769850 -1.590140 -1.904530
H  -0.223840 -2.060120 -1.874820
C  2.502050 0.290350 -0.810320
H  1.027450 1.525020 0.197180
N  2.747890 -0.796090 -1.547120
C  3.700890 1.111290 -0.438160
Pd  -1.660410 0.167030 -0.172560
C  4.640690 0.383020 0.533040
H  3.376000 2.069110 0.001280
H  4.256040 1.342910 -1.361140
H  4.904530 -0.571700 0.044920
C  5.915700 1.187180 0.748300
H  6.616550 0.653500 1.408740
H  6.433110 1.383540 -0.203480
H  5.694790 2.161400 1.216200
C  3.952610 0.067890 1.855680
H  3.055340 -0.553620 1.710490
H  4.627900 -0.477410 2.532780
H  3.641140 0.993120 2.370100
