31

C  0.693100 -1.334450 -0.729060
C  -0.275540 -1.078000 -1.724730
C  1.196920 -2.633320 -0.565020
C  -0.717390 -2.151810 -2.510820
C  -0.827090 0.306070 -1.944760
C  0.750930 -3.682930 -1.368560
H  1.950470 -2.828460 0.203730
C  -0.214650 -3.439840 -2.342400
H  -1.471690 -1.961130 -3.279920
H  -1.405380 0.322870 -2.883670
C  -1.711420 0.816970 -0.804230
H  0.019170 1.000000 -2.068910
H  1.158460 -4.687570 -1.230320
H  -0.577390 -4.253790 -2.974620
Pd  1.408280 0.102010 0.398440
H  -1.130380 0.700660 0.133700
C  -3.006120 0.020930 -0.656090
H  -2.788040 -1.052600 -0.532320
H  -3.580710 0.107320 -1.597770
C  -3.854190 0.528410 0.504040
H  -4.794200 -0.043260 0.570890
H  -3.312190 0.342950 1.449590
C  -4.144520 2.019630 0.370650
H  -4.719710 2.380460 1.239030
H  -4.785670 2.182480 -0.514870
C  -2.859330 2.825220 0.210780
H  -2.270080 2.758190 1.143520
H  -3.090120 3.893470 0.068490
C  -2.011040 2.307080 -0.945390
H  -2.540430 2.478370 -1.901530
H  -1.062930 2.866470 -1.008780
