23

C  -0.313570 1.160870 -0.436880
C  -0.757020 2.433370 -0.820540
C  1.059340 1.002560 -0.213170
C  0.136620 3.491650 -1.014390
H  -1.829340 2.599790 -0.950510
C  1.980670 2.042570 -0.424950
O  1.512430 -0.239300 0.116230
C  1.498470 3.294600 -0.827300
H  -0.240200 4.472090 -1.313890
C  3.387890 1.735560 -0.260120
C  2.733420 -0.397660 0.717330
H  2.208380 4.109280 -0.990640
C  3.768290 0.559930 0.263040
H  4.127760 2.480670 -0.562480
Cl  2.438430 0.106330 2.602110
N  3.098930 -1.739340 0.640950
H  4.814730 0.298660 0.430450
Pd  -1.647770 -0.256500 -0.137300
H  4.052420 -1.859070 0.967280
C  2.192190 -2.718260 1.210270
H  2.589020 -3.724420 1.018260
H  1.208190 -2.634370 0.731060
H  2.057800 -2.573930 2.296270
