15
Properties=species:S:1:pos:R:3 RH_Sub3.log=T Energy:=T -320033.5809223=T pbc="F F F"
N       -2.92755000      -0.81988000       0.04218000
H       -2.79683000      -1.23879000      -0.87672000
H       -3.91340000      -0.90861000       0.27103000
C       -2.52199000       0.56480000       0.03008000
H       -2.96427000       1.17712000      -0.78683000
H       -2.87202000       1.04641000       0.96184000
C       -1.03777000       0.73622000      -0.03209000
H       -0.66812000       1.75758000      -0.17316000
C       -0.16489000      -0.26429000       0.07349000
C        1.30962000      -0.07206000       0.00694000
H       -0.50491000      -1.29136000       0.23084000
F        1.84488000      -0.77289000      -1.00317000
F        1.90620000      -0.49906000       1.12792000
F        1.66031000       1.20627000      -0.16839000
Ne      -0.25649610      -0.50057191       2.13130207
