17
Properties=species:S:1:pos:R:3 RH_Sub3.log=T Energy:=T -357145.4488071=T pbc="F F F"
O       -2.62440000      -1.19837000      -0.38778000
H       -3.09497000      -1.94716000      -0.00969000
C       -2.80942000      -0.08594000       0.44984000
H       -3.88124000       0.18014000       0.53508000
H       -2.44003000      -0.28157000       1.47720000
C       -0.57324000       1.01127000      -0.14065000
H       -0.03645000       1.94974000      -0.31985000
C        0.14553000      -0.09760000       0.03534000
C        1.63473000      -0.10908000       0.01948000
C       -2.06563000       1.10275000      -0.12205000
H       -2.35478000       2.00270000       0.44697000
H       -2.42124000       1.28207000      -1.15360000
H       -0.32621000      -1.07330000       0.17345000
F        2.16490000       1.10122000      -0.18274000
F        2.10474000      -0.91575000      -0.94135000
F        2.12573000      -0.56926000       1.17975000
Ne      -0.25281988       1.82674796       1.73886381
