19
Properties=species:S:1:pos:R:3 aa113_plan_opt_TZ.log=T Energy:=T -288531.2003300=T pbc="F F F"
C       -0.19501000      -0.22722000       0.00000000
C        0.47325000      -1.45381000       0.00003000
C        1.85131000      -1.50985000       0.00004000
C        2.58220000      -0.33233000       0.00001000
C        1.92833000       0.88567000      -0.00003000
C        0.54037000       0.96988000      -0.00002000
H       -0.10664000      -2.36311000       0.00005000
H        2.35504000      -2.46471000       0.00006000
H        3.66199000      -0.36392000       0.00001000
H        2.50667000       1.79867000      -0.00006000
C       -0.11502000       2.31082000      -0.00003000
C       -1.67182000      -0.22248000      -0.00001000
O       -2.20363000      -1.46144000      -0.00010000
O       -2.38712000       0.75075000       0.00012000
H       -3.17064000      -1.39082000      -0.00006000
H       -0.75648000       2.42121000      -0.87238000
H       -0.75588000       2.42149000       0.87271000
H        0.63028000       3.10260000      -0.00040000
Ne       2.10316191      -1.98724501       2.00005000
