21
Properties=species:S:1:pos:R:3 aa79_opt_TZ.log=T Energy:=T -310615.4663082=T pbc="F F F"
C       -0.69684000      -0.00001000      -0.00020000
C       -1.39886000       1.20463000      -0.00019000
C       -2.78018000       1.20070000      -0.00009000
C       -3.47316000       0.00001000       0.00024000
C       -2.78019000      -1.20069000       0.00036000
C       -1.39887000      -1.20463000       0.00022000
H       -0.84361000       2.12936000      -0.00024000
H       -3.32156000       2.13552000      -0.00009000
H       -4.55354000       0.00001000       0.00028000
H       -3.32158000      -2.13551000       0.00071000
H       -0.84362000      -2.12938000       0.00051000
C        0.76648000      -0.00002000      -0.00042000
N        1.38760000       1.18023000      -0.00038000
C        2.70601000       1.17511000       0.00055000
C        3.44497000       0.00002000       0.00077000
C        2.70603000      -1.17510000      -0.00022000
N        1.38761000      -1.18025000      -0.00073000
H        3.18150000       2.14878000      -0.00028000
H        4.52218000       0.00003000       0.00166000
H        3.18155000      -2.14875000      -0.00085000
Ne       3.98522741       0.00068969      -1.99878421
