24
Properties=species:S:1:pos:R:3 RH_Sub26.log=T Energy:=T -254006.5718328=T pbc="F F F"
N       -3.11920000      -1.18283000       0.21563000
H       -3.66688000      -1.28722000      -0.63686000
H       -3.64233000      -1.64317000       0.95625000
C       -2.91832000       0.22160000       0.51615000
H       -3.85729000       0.81567000       0.52016000
H       -2.49962000       0.30229000       1.53312000
C       -1.94602000       0.87853000      -0.46505000
H       -2.03876000       1.97173000      -0.36796000
H       -2.27640000       0.63904000      -1.49279000
C       -0.49923000       0.49771000      -0.28912000
C       -0.06662000      -0.83245000      -0.39676000
C        0.46056000       1.47189000      -0.00190000
C        1.27295000      -1.16205000      -0.22367000
C        1.80401000       1.13833000       0.16773000
H        0.15249000       2.51776000       0.09052000
C        2.23706000      -0.18491000       0.05877000
H        1.58144000      -2.20847000      -0.30998000
H        2.53037000       1.92526000       0.39060000
C        3.68193000      -0.55592000       0.23013000
H       -0.80807000      -1.60975000      -0.59018000
H        4.10412000      -0.96011000      -0.70436000
H        3.80809000      -1.33194000       1.00171000
H        4.28930000       0.31232000       0.52266000
Ne      -0.13400106      -1.02106441      -2.46018508
