11
RH_Sub14_S.log	Energy: -370885.8074464
S         -1.72802       -0.28715       -0.03803
H         -1.46612       -1.45537        0.58657
C         -0.05428        0.28269        0.00466
O          0.82020       -0.73709       -0.04498
C          0.23424        1.59334        0.02975
H          1.25511        1.96490       -0.05673
H         -0.57203        2.32003        0.12141
C          2.18800       -0.42203        0.00798
H          2.50046        0.15851       -0.87712
H          2.43195        0.15495        0.91681
H          2.72952       -1.37587        0.02299
