11
RH_Sub1_S.log	Energy: -381561.1927937
S         -2.17573       -0.57748       -0.06236
H         -1.89412       -0.96740        1.20022
C         -1.25313        0.98232       -0.00390
H         -1.56093        1.53048       -0.91148
H         -1.61025        1.59763        0.83813
C          0.23734        0.89445        0.03191
H          0.76130        1.85258        0.13023
C          0.95420       -0.23519       -0.05011
C          2.37882       -0.24748       -0.01375
H          0.44502       -1.19952       -0.15893
N          3.53819       -0.27696        0.01638
