20
RH_Sub9.log	Energy: -182584.7652692
N         -2.74686        0.77399       -0.12056
H         -2.45301        1.40570        0.62270
H         -3.76169        0.81701       -0.15879
C         -2.30325       -0.57144        0.16890
H         -2.64351       -0.96625        1.15277
H         -2.75272       -1.25297       -0.57792
C         -0.81198       -0.72269        0.10724
H         -0.42659       -1.68409        0.46520
C          0.02794        0.21196       -0.34522
C          1.52676        0.12489       -0.41803
H         -0.41315        1.15028       -0.70363
H          1.79510        0.25831       -1.48449
C          2.15795        1.29057        0.34682
H          3.25231        1.30264        0.22342
H          1.76780        2.25892       -0.00309
H          1.93751        1.21126        1.42377
C          2.09808       -1.20897        0.03982
H          1.68733       -2.04845       -0.54134
H          3.19262       -1.22378       -0.07503
H          1.87302       -1.39240        1.10316
