15
RH_Sub28.log	Energy: -274006.5422219
O          0.05577        1.47870        0.28560
H         -0.80013        1.92488        0.16841
C         -0.08980        0.22068       -0.22523
N         -1.56814       -0.18845       -0.10927
H          0.07132        0.17094       -1.32277
C          2.24618       -0.65721        0.19504
H          2.85285       -1.50352        0.53809
C          2.85219        0.36448       -0.41066
H          3.93260        0.35406       -0.57334
C          0.78069       -0.79575        0.47533
H          0.43855       -1.79670        0.17170
H          0.59505       -0.71282        1.56139
H          2.30629        1.25192       -0.74185
O         -1.85668       -1.33831       -0.30864
O         -2.34348        0.71427        0.11759
