15
RH_Sub1.log	Energy: -191128.8403752
N         -2.16031        1.22002        0.20580
H         -2.18198        1.21317        1.22407
H         -2.90801        1.83754       -0.10024
C         -2.33431       -0.11425       -0.32282
H         -3.27619       -0.62244       -0.02427
H         -2.36327       -0.04553       -1.42431
C         -1.16434       -1.00718        0.07727
H         -1.29395       -1.99155       -0.40887
H         -1.17916       -1.19759        1.16431
C          0.15608       -0.44044       -0.31895
C          1.23101       -0.38228        0.48222
C          2.48845        0.13913        0.05811
H          1.18091       -0.73972        1.51653
H          0.24380       -0.06039       -1.34337
N          3.51981        0.55663       -0.27135
