14
RH_Sub31.log	Energy: -203583.9969827
O         -0.40911        1.62554       -0.65864
H         -0.41878        2.58632       -0.68559
C         -0.23961        1.21199        0.66535
H          0.53037        1.80976        1.18734
H         -1.17701        1.28940        1.25168
C         -0.82055       -1.25371        0.19927
H         -0.56694       -2.29922        0.40699
C         -1.95029       -0.96059       -0.44128
H         -2.63739       -1.75491       -0.74322
C          0.19823       -0.25091        0.69571
H          0.40553       -0.49124        1.75550
C          1.47275       -0.43227       -0.00900
H         -2.20985        0.06652       -0.70723
N          2.48339       -0.58543       -0.55095
