13
RH_Sub12.log	Energy: -410612.8721829
S          1.97677        0.36559       -0.40004
H          3.15777        0.13170        0.20998
C          0.99461       -0.77119        0.64273
H          1.53393       -1.72547        0.71717
H          0.89159       -0.35751        1.65817
C         -1.33347        0.11107        0.03976
F         -2.51989       -0.26870       -0.45643
C         -1.15945        1.36074        0.45759
H         -1.98050        2.07641        0.39513
C         -0.37400       -1.03257        0.04177
H         -0.85555       -1.85536        0.59967
H         -0.27178       -1.39910       -0.99506
H         -0.19086        1.68989        0.83242
