15
RH_Sub27.log	Energy: -180462.8792230
O          0.64260        1.27603       -0.42921
H          1.40428        1.81219       -0.17655
C          0.78046        0.07828        0.28417
H          2.37102       -1.03747        0.93672
H          0.53303        0.22562        1.35747
C         -1.66668       -0.63652       -0.09497
H         -2.33575       -1.48659       -0.27944
C         -2.20289        0.52704        0.27670
H         -3.28395        0.62925        0.40285
C         -0.20892       -0.92708       -0.29294
H          0.01893       -1.91233        0.14966
H          0.00524       -1.02511       -1.37471
H         -1.58459        1.41369        0.43762
H          2.38290       -0.73362       -0.68035
N          2.16233       -0.33488        0.23181
