15
RH_Sub17.log	Energy: -180465.4794849
O          2.07236        0.40268       -0.48100
H          2.90434        0.71245       -0.11179
C          1.49221       -0.49383        0.43158
H          2.11493       -1.40401        0.54372
H          1.38699       -0.04240        1.43816
C         -0.97436        0.11337        0.01034
H         -2.38801       -1.34973        0.18843
C         -0.75412        1.42721        0.19209
H         -1.58597        2.13460        0.24909
C          0.12579       -0.91479       -0.06320
H         -0.18712       -1.79698        0.52521
H          0.21724       -1.26734       -1.10566
H          0.26124        1.81894        0.20468
H         -3.00982        0.19601       -0.03736
N         -2.23283       -0.43068       -0.21019
