18
RH_Sub34.log	Energy: -205096.1750717
N         -2.18098       -0.18995       -0.60667
H         -2.02081        0.73011       -1.01344
H         -3.18522       -0.29893       -0.49475
C         -1.51095       -0.24977        0.67358
H         -1.85979        0.50101        1.41427
H         -1.66037       -1.24487        1.12421
C         -0.01547       -0.02953        0.48986
H          0.47232       -0.04795        1.48727
O          0.11160        1.25978       -0.07547
C          0.61231       -1.08200       -0.37997
C          1.65925       -1.82461       -0.02077
H          2.07572       -2.59019       -0.68130
H          2.13766       -1.70023        0.95733
H          0.13193       -1.21572       -1.35508
C          1.41550        1.75327       -0.12444
H          1.86224        1.83011        0.88718
H          2.08322        1.12402       -0.74113
H          1.37333        2.75988       -0.56366
