28
RH_Sub9_O.log	Energy: -268994.9209929
O          2.07133        1.79185       -0.26564
H          2.00355        1.41477       -1.14692
C          2.89495        0.95699        0.51365
H          3.85469        0.74979       -0.00349
H          3.14898        1.54246        1.41179
C         -0.43940       -0.97341       -0.50734
H         -0.92705       -1.91666       -0.23223
C         -1.04053        0.18674       -0.22488
C         -2.38306        0.38210        0.42176
C          2.26015       -0.35581        0.95261
H          1.30521       -0.13299        1.45769
H          2.92282       -0.79236        1.71976
C          0.91340       -1.09671       -1.14097
H          1.13725       -0.17859       -1.70788
H          0.89391       -1.90646       -1.88999
C          2.03542       -1.40122       -0.13695
H          2.97824       -1.56237       -0.69080
H          1.80608       -2.36636        0.34697
H         -0.50729        1.11332       -0.47667
H         -2.20118        0.97262        1.34104
C         -3.27954        1.23227       -0.48147
H         -4.23151        1.47324        0.01687
H         -2.79114        2.18055       -0.75416
H         -3.51004        0.69430       -1.41522
C         -3.07397       -0.91095        0.82856
H         -2.45645       -1.50219        1.52164
H         -4.03146       -0.69901        1.32805
H         -3.28980       -1.53887       -0.05115
