24
RH_Sub43.log	Energy: -254393.8759269
N         -1.61288       -0.21555       -1.50951
H         -0.69451        0.22775       -1.48817
H         -2.16263        0.26044       -2.22082
C         -2.24218       -0.08046       -0.21401
H         -2.41328        0.97180        0.11619
H         -3.24599       -0.53481       -0.27616
C          1.53097       -1.22883        0.24733
H          1.63746       -1.97325        1.04495
C          1.86956       -1.53496       -1.00274
H          2.25546       -2.52485       -1.25735
C         -1.47507       -0.80326        0.89077
H         -1.14501       -1.77738        0.49186
H         -2.18425       -1.02176        1.70634
C          0.98972        0.09462        0.69906
O          0.84967        0.94436       -0.41613
H          1.74519        0.54366        1.38105
C         -0.29639       -0.06221        1.52237
H         -0.62637        0.93720        1.85628
H         -0.00461       -0.59121        2.44587
H          1.76160       -0.80337       -1.80631
C          0.81425        2.30872       -0.12708
H         -0.07133        2.59806        0.46868
H          1.71974        2.63090        0.42221
H          0.77601        2.84917       -1.08320
