24
RH_Sub4.log	Energy: -254396.0753312
N          1.37960        1.68624       -0.81460
H          1.49991        1.09410       -1.63324
H          1.61979        2.62677       -1.11993
C          2.27491        1.26735        0.25617
H          3.31439        1.07563       -0.08937
H          2.34754        2.10740        0.96662
C         -0.70939       -1.40812       -0.19700
H         -1.12823       -2.28620        0.30708
C         -1.45401       -0.29886       -0.25872
O         -2.71146       -0.23698        0.22768
C          1.78664        0.05113        1.03515
H          0.77178        0.25782        1.41381
H          2.43624       -0.04515        1.92172
C          0.68241       -1.48752       -0.74668
H          0.79502       -0.75672       -1.56199
H          0.83193       -2.47422       -1.21704
C          1.78918       -1.28751        0.30090
H          2.77223       -1.44065       -0.18122
H          1.69580       -2.09204        1.05076
H         -1.05574        0.62388       -0.70564
C         -3.28540        1.03914        0.26085
H         -2.74444        1.71669        0.94627
H         -3.31082        1.50489       -0.74147
H         -4.31686        0.92631        0.62034
