17
aa119_plan_opt_TZ.log	Energy: -241337.5263882
C         -0.21072       -0.04810       -0.00000
C          0.42775        1.19124        0.00001
C          1.80866        1.26131        0.00001
C          2.56966        0.10317        0.00000
C          1.94526       -1.13387       -0.00001
C          0.56655       -1.20757       -0.00001
H         -0.14453        2.10567        0.00001
H          2.29593        2.22538        0.00001
H          3.64786        0.16581       -0.00000
H          2.53534       -2.03823       -0.00001
H          0.05992       -2.16115       -0.00001
C         -1.68832       -0.20834       -0.00000
O         -2.20334       -1.30448        0.00002
C         -2.51862        1.05231       -0.00001
H         -3.57261        0.78568       -0.00012
H         -2.29832        1.64580        0.88448
H         -2.29818        1.64591       -0.88440
