25
aa16_opt_TZ.log	Energy: -349085.0387310
C          1.80767        0.17807        0.02047
C          2.37535       -0.98932        0.53728
C          3.74705       -1.15067        0.54498
C          4.57012       -0.16430        0.02784
C          4.01335        0.99871       -0.48238
C          2.64551        1.17959       -0.47505
H          1.73062       -1.74855        0.95783
H          4.17645       -2.05420        0.95383
H          5.64174       -0.29748        0.02926
H          4.65356        1.77228       -0.88119
H          2.20108        2.08004       -0.87091
N          0.45069        0.41490        0.06016
C         -0.41329       -0.45712       -0.25402
C         -1.83653       -0.20645       -0.12252
H         -0.13736       -1.44034       -0.66236
C         -2.75403       -1.18794       -0.49841
C         -4.11087       -0.96230       -0.36756
C         -4.56818        0.24435        0.13755
C         -3.66374        1.22733        0.51203
C         -2.30737        1.00646        0.38466
H         -2.39651       -2.12909       -0.89262
H         -4.81520       -1.72763       -0.65934
H         -5.62929        0.41847        0.23938
H         -4.02334        2.16701        0.90509
H         -1.58689        1.75669        0.67064
