34
aa237_opt_TZ.log	Energy: -563681.6536882
H         -4.71404        2.09443       -0.00238
C         -4.64415       -0.03610       -0.00034
C          1.65749        0.02914        0.00028
C         -4.06186        1.23554       -0.00135
C          5.34903       -0.07590       -0.00024
H          6.17099        0.62598       -0.00019
N          0.43395       -0.58067        0.00026
C          5.58967       -1.42368       -0.00066
C         -2.69521        1.37899       -0.00106
H          6.60525       -1.79220       -0.00096
C         -1.86889        0.25183        0.00019
C         -6.66004       -1.30426        0.00026
C         -0.43268        0.38987        0.00036
H         -4.24346       -2.15461        0.00182
C          4.03203        0.42470        0.00009
C          2.96347       -0.51131        0.00004
O         -6.00119       -0.06017       -0.00078
C          3.23260       -1.88859       -0.00036
C          4.52686       -2.33659       -0.00073
H          2.31305        3.39353        0.00077
H         -1.80437       -1.87869        0.00218
C          3.77467        1.82077        0.00041
C          2.50707        2.33297        0.00058
H         -7.72397       -1.07255       -0.00047
H          4.62174        2.49100        0.00049
C          1.45663        1.41276        0.00047
O          0.12105        1.63461        0.00049
C         -2.44951       -1.01476        0.00120
C         -3.82223       -1.16176        0.00097
H         -6.41674       -1.88848       -0.89269
H         -6.41753       -1.88654        0.89470
H         -2.25163        2.36262       -0.00185
H          2.39681       -2.57091       -0.00040
H          4.73742       -3.39597       -0.00108
