41
aa243_opt_TZ.log	Energy: -485579.7645283
H         -2.61211       -0.25465        2.64839
H          0.02816       -1.41957        0.28235
C         -2.83824       -0.70605       -1.23812
C         -3.83857        0.21432       -0.54201
C         -3.26290        0.65731        0.80166
C         -0.68701       -0.74426        0.75404
H         -3.50766       -2.48216       -0.20933
H         -3.24481       -1.02489       -2.20483
H         -4.03801        1.08746       -1.16702
H         -2.11520        2.28768       -0.03940
H         -1.53826        1.73154        1.53196
H         -3.94288       -1.10240        1.85541
C         -1.95012        1.40105        0.57485
H         -3.97324        1.32513        1.30179
O          0.25468        2.46992       -0.71626
C          4.19512       -0.47418        0.10582
H         -1.87219       -2.60260       -0.86342
C          2.56318        1.21991        0.62916
C          3.29149       -1.03219       -0.78874
C          3.81218        0.66147        0.81168
H          3.57691       -1.90370       -1.36082
H          2.27813        2.11073        1.16897
H         -0.82423       -0.60706       -1.99937
C          1.64898        0.63996       -0.24716
C          2.03141       -0.48895       -0.96226
H         -1.70121        0.92313       -2.09607
H          4.50680        1.11651        1.50301
H          5.74617       -1.86415       -0.40335
C         -3.00726       -0.56686        1.67895
C         -1.52723        0.04262       -1.47371
C         -0.93582        0.48360       -0.12415
H         -0.26516       -0.43145        1.71283
H         -1.81845       -2.36483        1.60717
C          0.32428        1.30244       -0.40585
C          5.55423       -1.06858        0.31208
C         -2.00639       -1.48525        0.98071
C         -2.57667       -1.93242       -0.36480
H          6.32360       -0.30587        0.20350
H          5.63567       -1.48082        1.31769
H         -4.78359       -0.31182       -0.38835
H          1.36013       -0.92913       -1.68404
