23
aa268_opt_TZ.log	Energy: -428808.7182835
C          0.04667        1.84457        0.19134
C         -0.24664        0.48468        0.06395
C         -1.65319        0.05307        0.02997
N         -2.53258        0.97510       -0.35857
C         -3.80882        0.65454       -0.41896
C         -4.29862       -0.60176       -0.09113
C         -3.39255       -1.56029        0.33382
C         -2.04894       -1.23353        0.39755
C          1.35496        2.29297        0.22937
C          2.40189        1.39410        0.13408
C          2.11050        0.04273       -0.00593
C          0.80271       -0.42004       -0.04257
N          3.19092       -0.90564       -0.11941
O          4.32397       -0.47454       -0.10710
O          2.90272       -2.07980       -0.21909
H         -4.47041        1.44549       -0.74809
H         -5.35280       -0.81879       -0.16000
H         -3.72724       -2.54838        0.61468
H         -1.32817       -1.95645        0.74493
H         -0.77760        2.53710        0.25641
H          1.56138        3.34699        0.33316
H          3.43213        1.71363        0.16083
H          0.63301       -1.47740       -0.17541
