33
aa280_plan2_opt_TZ.log	Energy: -492738.1419076
C          3.15763       -0.88074       -0.50067
C          2.40042        0.03715        0.21950
N          1.02763       -0.19856        0.46788
C          0.20459       -0.64899       -0.52408
O          0.58545       -0.93279       -1.64056
C          3.00715        1.19193        0.70533
C          4.35025        1.42258        0.47082
C          5.10035        0.51147       -0.25226
C          4.49808       -0.63697       -0.73700
C          0.50160        0.19018        1.76025
C         -1.24575       -0.74575       -0.14816
C         -2.05627        0.36797       -0.33324
C         -3.41649        0.28778       -0.05952
C         -3.94956       -0.91558        0.40749
C         -3.13843       -2.01701        0.57969
C         -1.78269       -1.94301        0.29892
O         -4.29951        1.31189       -0.20579
C         -3.83304        2.53543       -0.72116
H         -4.70760        3.18092       -0.78430
H         -3.09293        2.99585       -0.05815
H         -3.40094        2.41279       -1.71923
H         -5.00630       -0.95878        0.61784
H         -3.56429       -2.94442        0.93205
H         -1.61028        1.27844       -0.70291
H         -1.14708       -2.80669        0.42291
H         -0.28653       -0.49880        2.06157
H          1.30480        0.14744        2.49462
H          0.08529        1.20189        1.74603
H          2.43013        1.91943        1.25597
H          4.80940        2.32367        0.85057
H          6.14765        0.69708       -0.43752
H          5.07679       -1.35430       -1.29952
H          2.69381       -1.77598       -0.87981
