31
aa320_opt_TZ.log	Energy: -374662.1448463
C          1.25896       -0.58722        0.00001
C          2.63419        0.10884       -0.00001
C          3.36741       -0.38547        1.25308
C          3.36746       -0.38561       -1.25300
C          2.60202        1.63749       -0.00009
N          0.18182        0.24041       -0.00004
C         -1.18317       -0.07651       -0.00003
C         -1.63798       -1.39087       -0.00003
C         -2.99392       -1.66031       -0.00002
C         -3.90995       -0.62465        0.00001
C         -3.45840        0.68370        0.00002
C         -2.10492        0.98202        0.00001
C         -1.65482        2.41675        0.00002
H          4.39802       -0.03770        1.25226
H          2.87670       -0.01963        2.15334
H          3.36247       -1.47194        1.27662
H          4.39808       -0.03786       -1.25216
H          2.87680       -0.01985       -2.15332
H          3.36250       -1.47209       -1.27643
H          2.11507        2.03152        0.89127
H          3.62568        2.00840       -0.00011
H          2.11507        2.03141       -0.89149
H          0.37064        1.22967       -0.00006
H         -0.92104       -2.19390       -0.00006
H         -3.33138       -2.68578       -0.00003
H         -4.96988       -0.82983        0.00003
H         -4.17329        1.49449        0.00004
H         -2.51872        3.07650        0.00007
H         -1.06132        2.64544        0.88669
H         -1.06140        2.64547       -0.88671
O          1.19275       -1.79827        0.00007
