35
aa335_plan_opt_TZ.log	Energy: -470224.8435357
N         -0.43743        0.10504        0.43217
C          0.40820       -0.04695       -0.61649
C         -0.03785        0.34974        1.79655
C         -1.83606       -0.09898        0.21684
C         -2.68684        0.98812        0.02361
C         -4.03956        0.73479       -0.16524
C         -4.53353       -0.55683       -0.17355
C         -3.67504       -1.62789        0.00178
C         -2.32616       -1.39599        0.19736
C         -2.16215        2.39138        0.01397
H         -4.71258        1.56643       -0.31747
H         -5.58867       -0.72800       -0.32746
H         -4.05253       -2.63900       -0.01731
H         -1.63954       -2.21964        0.32621
H         -2.82382        3.04018       -0.55446
H         -2.09641        2.78406        1.02981
H         -1.17009        2.42454       -0.43048
O          0.01272       -0.28971       -1.74042
C          1.86708        0.12502       -0.30796
C          2.65419       -0.99430       -0.03141
C          4.01167       -0.81211        0.19250
C          4.58063        0.44847        0.13525
C          3.79595        1.55103       -0.15363
C          2.43995        1.38731       -0.37679
C          2.02917       -2.35439        0.02858
H          4.63135       -1.67021        0.41049
H          5.63948        0.56875        0.31109
H          4.23715        2.53492       -0.20758
H          1.81964        2.24099       -0.60927
H         -0.52033        1.25336        2.17547
H         -0.33409       -0.48871        2.43387
H          1.04128        0.47544        1.85135
H          1.39980       -2.44518        0.91462
H          1.40163       -2.51630       -0.84587
H          2.79017       -3.12987        0.06700
