23
RH_Sub26.log	Energy: -254006.5718328
N         -3.11920       -1.18283        0.21563
H         -3.66688       -1.28722       -0.63686
H         -3.64233       -1.64317        0.95625
C         -2.91832        0.22160        0.51615
H         -3.85729        0.81567        0.52016
H         -2.49962        0.30229        1.53312
C         -1.94602        0.87853       -0.46505
H         -2.03876        1.97173       -0.36796
H         -2.27640        0.63904       -1.49279
C         -0.49923        0.49771       -0.28912
C         -0.06662       -0.83245       -0.39676
C          0.46056        1.47189       -0.00190
C          1.27295       -1.16205       -0.22367
C          1.80401        1.13833        0.16773
H          0.15249        2.51776        0.09052
C          2.23706       -0.18491        0.05877
H          1.58144       -2.20847       -0.30998
H          2.53037        1.92526        0.39060
C          3.68193       -0.55592        0.23013
H         -0.80807       -1.60975       -0.59018
H          4.10412       -0.96011       -0.70436
H          3.80809       -1.33194        1.00171
H          4.28930        0.31232        0.52266
