29

N       2.312879     -2.125453     -0.241129
H       2.577620     -2.611807      0.613751
H       2.541189     -2.747101     -1.012691
C       3.033743     -0.871968     -0.352481
H       4.130714     -0.974130     -0.209495
H       2.892076     -0.480800     -1.373616
C       2.520346      0.171548      0.642475
H       3.251552      0.993553      0.692985
H       2.505765     -0.284191      1.649307
C       1.164866      0.740106      0.314395
C       0.025655     -0.071625      0.300004
C       1.021839      2.094959     -0.007936
C      -1.234938      0.433253     -0.034213
C      -0.227408      2.617214     -0.333390
H       1.900359      2.746737     -0.001499
C      -1.349148      1.790926     -0.348046
C      -2.442858     -0.480056     -0.067640
H      -0.327560      3.677434     -0.579536
H      -2.328768      2.202938     -0.607406
H       0.149968     -1.132578      0.525682
H      -3.311346      0.145584     -0.337450
C      -2.292466     -1.555716     -1.143611
H      -3.189029     -2.194167     -1.191108
H      -2.138562     -1.105275     -2.135699
H      -1.426040     -2.204099     -0.936425
C      -2.724638     -1.097478      1.301355
H      -2.854296     -0.320955      2.070087
H      -3.638662     -1.711696      1.275041
H      -1.895091     -1.748243      1.620509
