16
RH_Sub21_O.log	Energy: -321730.4033933
O          3.03126       -1.10251        0.00013
C          2.44999        0.10260       -0.00005
H          3.98803       -0.94770        0.00010
O          3.07595        1.13119       -0.00022
C          0.96288        0.02845        0.00004
C          0.28051       -1.19248       -0.00003
C          0.25062        1.23182        0.00010
C         -1.10812       -1.21174       -0.00005
C         -1.13654        1.22169        0.00015
H          0.81103        2.16863        0.00011
C         -1.82156       -0.00368        0.00006
H         -1.65061       -2.15852       -0.00009
H         -1.70069        2.15570        0.00023
C         -3.25418       -0.02147       -0.00004
H          0.84608       -2.12497       -0.00002
N         -4.41331       -0.03623       -0.00010
