20

N       2.813106      1.217861      0.003209
H       3.287850      1.251920     -0.897413
H       3.360226      1.786956      0.644364
C       2.717709     -0.151022      0.473943
H       3.693595     -0.680403      0.504023
H       2.345197     -0.135415      1.511963
C       1.759320     -0.981392     -0.378778
H       1.937604     -2.047433     -0.168792
H       2.028464     -0.839832     -1.442475
C       0.290838     -0.695680     -0.190626
C      -0.200124      0.616365     -0.192723
C      -0.612846     -1.751553     -0.016191
C      -1.559530      0.836035     -0.022848
C      -1.975455     -1.507582      0.146910
H      -0.242491     -2.780041     -0.007595
C      -2.465823     -0.204306      0.144875
F      -2.013636      2.091476     -0.022339
H      -2.666261     -2.343441      0.281051
H      -3.526659      0.018461      0.271521
H       0.488926      1.455730     -0.305426
