21
RH_Sub13.log	Energy: -453358.1874765
C         -0.52814       -0.13141       -0.00010
C         -1.65856        0.74539       -0.00010
C          0.77519        0.45527       -0.00023
C          0.93246        1.82284        0.00007
C         -1.45546        2.14943       -0.00004
C         -0.18923        2.67901        0.00016
H         -2.33071        2.80414       -0.00000
H         -0.04071        3.76074        0.00025
C          1.99903       -0.42120       -0.00017
C         -0.76109       -1.53273        0.00029
H          0.08243       -2.22226        0.00037
C         -2.04240       -2.03315        0.00050
H         -2.19856       -3.11433        0.00080
C         -3.15705       -1.16625        0.00033
H         -4.16796       -1.57999        0.00050
C         -2.96548        0.19420        0.00005
H         -3.81960        0.87611        0.00004
H          1.93775        2.24569        0.00013
F          2.03905       -1.21936       -1.07593
F          2.03802       -1.22074        1.07445
F          3.12755        0.29137        0.00074
