27
RH_Sub29.log	Energy: -315914.4622104
C         -1.35139        0.79351        0.00006
C         -1.05414       -0.60343       -0.00008
C         -0.27089        1.71309        0.00012
C          1.03040        1.27488        0.00005
C          0.30287       -1.01709       -0.00015
C          1.34257       -0.11216       -0.00007
H          0.52013       -2.08970       -0.00026
C          2.78340       -0.57432       -0.00012
H         -0.49149        2.78396        0.00021
C         -2.70696        1.20949        0.00013
H         -2.92862        2.28009        0.00023
C         -3.72661        0.28599        0.00006
H         -4.76733        0.61853        0.00011
C         -3.43343       -1.09727       -0.00008
H         -4.25044       -1.82277       -0.00014
C         -2.12780       -1.53066       -0.00015
H         -1.89932       -2.59981       -0.00026
H          1.84194        2.00736        0.00009
H          2.76219       -1.67759       -0.00045
C          3.51831       -0.12520       -1.26294
H          4.54665       -0.51914       -1.27775
H          3.00317       -0.47527       -2.16983
H          3.58388        0.97320       -1.31897
C          3.51809       -0.12596        1.26311
H          3.00277       -0.47659        2.16969
H          4.54643       -0.51991        1.27788
H          3.58363        0.97241        1.31982
