16
RH_Sub12.log	Energy: -256396.6749623
C          3.34069       -0.20168        0.00246
H          3.44827        0.88630        0.00648
C          2.14799       -0.80776       -0.00131
H          2.12410       -1.90324       -0.00498
C          0.82712       -0.16550       -0.00090
C         -0.31387       -0.97999       -0.00052
C          0.65278        1.22888       -0.00092
C         -1.57757       -0.40529        0.00030
H         -0.22801       -2.06867       -0.00067
C         -0.62148        1.78327       -0.00032
H          1.52344        1.88670       -0.00177
C         -1.75648        0.97111        0.00037
F         -2.64670       -1.20087        0.00048
H         -0.74002        2.86927       -0.00045
H         -2.76634        1.38446        0.00076
H          4.26385       -0.78524        0.00142
