17
RH_Sub17.log	Energy: -500844.4855784
S          2.94478        0.46377       -0.00856
C          1.54569       -0.66604        0.00530
H          3.83566       -0.54914        0.00304
O          1.70312       -1.85935        0.01616
C          0.20693       -0.01131        0.00074
C          0.03802        1.37746        0.00983
C         -0.90035       -0.86085       -0.00880
C         -1.25442        1.89471        0.00960
C         -2.20408       -0.34532       -0.01091
H         -0.72230       -1.93867       -0.01657
C         -2.36123        1.05344       -0.00053
H         -1.40600        2.97652        0.01880
H         -3.15006       -2.14576        0.19704
H         -3.36829        1.47949       -0.00424
H          0.89873        2.04898        0.01994
H         -4.18480       -0.80210        0.22723
N         -3.29540       -1.18105       -0.06701
