18
RH_Sub13.log	Energy: -677309.6956157
S         -3.91517        0.07758        0.02088
C         -2.33365       -0.76804       -0.00879
H         -4.60369       -1.08239        0.01212
O         -2.25297       -1.96771       -0.02559
C         -1.13878        0.12637       -0.00943
C         -1.22233        1.52184        0.00009
C          0.11460       -0.49373       -0.02503
C         -0.06192        2.29102       -0.00811
C          1.27013        0.27856       -0.02929
H          0.16002       -1.58394       -0.03913
C          1.18514        1.67315       -0.02383
H         -0.13034        3.38060       -0.00608
C          2.62229       -0.38226        0.00347
H          2.09796        2.27206       -0.03910
H         -2.19690        2.01619        0.01038
F          2.57915       -1.62469       -0.47776
F          3.09578       -0.45469        1.25216
F          3.51690        0.30344       -0.71463
