9
Properties=species:S:1:pos:R:3 RH_Sub11_O.log=T Energy:=T -154289.3619155=T pbc="F F F"
O        0.98589000       1.20771000      -0.00002000
H        0.29069000       1.87388000       0.00006000
C        0.44558000      -0.03040000       0.00003000
C       -0.99308000      -0.10090000       0.00000000
C        1.19469000      -1.14085000       0.00000000
H        0.72353000      -2.12228000      -0.00005000
H        2.28301000      -1.06167000      -0.00001000
N       -2.15250000      -0.10268000      -0.00001000
He       0.95911000      -1.63156500      -0.00002500
