14
Properties=species:S:1:pos:R:3 RH_Sub25.log=T Energy:=T -636686.3120026=T pbc="F F F"
S        0.20947000       1.60800000      -0.28185000
H        1.11960000       2.10806000       0.58093000
C        0.33937000      -0.10328000       0.29946000
Cl       2.02763000      -0.72066000       0.16250000
H        0.10530000      -0.15076000       1.37151000
C       -2.05802000      -0.84940000      -0.25696000
H       -2.67373000      -1.55668000      -0.82580000
C       -2.66720000       0.01142000       0.55882000
H       -3.75548000       0.00890000       0.65752000
C       -0.58637000      -1.00945000      -0.49367000
H       -0.30565000      -2.04825000      -0.24917000
H       -0.35849000      -0.89590000      -1.56862000
H       -2.11960000       0.76215000       1.13483000
He      -2.39340000       0.38678500       0.84682500
