20
Properties=species:S:1:pos:R:3 RH_Sub11.log=T Energy:=T -299441.7101432=T pbc="F F F"
C       -0.48319000       2.16148000      -0.00018000
C       -1.58572000       1.31606000      -0.00003000
C        0.87753000       1.83514000       0.00002000
C       -1.64569000      -0.09161000       0.00003000
H       -2.55972000       1.81338000       0.00001000
C        1.47111000       0.58112000      -0.00006000
C        1.79925000      -1.71957000      -0.00018000
C       -0.57486000      -1.00306000       0.00006000
C       -2.96166000      -0.66557000       0.00004000
C        0.78676000      -0.74497000       0.00013000
C        2.85150000       0.32060000       0.00014000
C        3.04188000      -1.06899000      -0.00001000
H        1.63217000      -2.79637000      -0.00027000
H       -0.85645000      -2.06064000      -0.00004000
H        3.63223000       1.08081000       0.00022000
H        4.01126000      -1.56954000      -0.00009000
H        1.57116000       2.68279000       0.00032000
H       -0.71498000       3.22960000      -0.00015000
N       -4.02531000      -1.12912000       0.00002000
He      -0.71565500      -1.53185000       0.00001000
