16
Properties=species:S:1:pos:R:3 RH_Sub37.log=T Energy:=T -383074.5933991=T pbc="F F F"
S       -1.68127000      -0.39163000      -0.40067000
H       -2.49720000      -1.15002000       0.36514000
C       -0.60467000       0.12474000       0.98288000
H       -1.12895000       0.88651000       1.58178000
H       -0.39177000      -0.72786000       1.64414000
C        1.68585000      -0.28160000      -0.08706000
H        2.61616000       0.17401000      -0.45320000
C        1.55557000      -1.60482000      -0.14939000
H        2.35772000      -2.22877000      -0.55163000
C        0.70148000       0.71499000       0.46555000
H        1.20046000       1.14814000       1.36514000
H       -0.07123000       2.51368000      -0.14877000
H        0.64097000      -2.11364000       0.16573000
H        1.26568000       2.05717000      -0.98077000
N        0.41131000       1.71242000      -0.54983000
Xe       3.42449766      -3.05855984      -1.08656816
