29
Properties=species:S:1:pos:R:3 RH_Sub29_O.log=T Energy:=T -268993.6356157=T pbc="F F F"
O       -0.17711000      -1.59005000       0.13648000
H        0.12172000      -1.41081000      -0.76082000
C       -0.80547000      -0.42049000       0.62709000
C       -1.93953000       0.02592000      -0.30836000
H       -1.27463000      -0.74107000       1.57515000
C        3.07486000       0.16133000      -0.18257000
H        3.82641000       0.92711000       0.05122000
C        3.24686000      -1.07439000       0.28915000
H        4.12363000      -1.33929000       0.88617000
C        0.20483000       0.67337000       0.98916000
H        0.97587000       0.20245000       1.62024000
H       -0.30616000       1.40663000       1.63386000
C        1.89774000       0.62960000      -0.98296000
H        1.41583000      -0.23095000      -1.47507000
H        2.25361000       1.27459000      -1.80423000
C        0.87988000       1.42779000      -0.15491000
H        0.12125000       1.84864000      -0.83655000
H        1.40287000       2.30042000       0.27329000
H        2.50126000      -1.85689000       0.11736000
H       -1.47741000       0.27056000      -1.28603000
C       -2.92916000      -1.11276000      -0.53146000
H       -3.68403000      -0.84201000      -1.28546000
H       -2.41691000      -2.02723000      -0.85955000
H       -3.46111000      -1.35026000       0.40489000
C       -2.65470000       1.27327000       0.19794000
H       -1.99603000       2.15285000       0.23897000
H       -3.50391000       1.52607000      -0.45516000
H       -3.05734000       1.10784000       1.21137000
Xe       1.51150172      -2.89563176      -0.11068530
