25
Properties=species:S:1:pos:R:3 RH_Sub14.log=T Energy:=T -301116.1383939=T pbc="F F F"
N       -2.79693000      -1.77095000      -0.00857000
H       -3.24859000      -1.90614000      -0.91151000
H       -3.18035000      -2.47319000       0.61920000
C       -3.05280000      -0.43282000       0.48920000
H       -4.13275000      -0.17698000       0.54188000
H       -2.67147000      -0.36861000       1.52222000
C       -2.35878000       0.63394000      -0.35615000
H       -2.81323000       1.61034000      -0.12626000
H       -2.59452000       0.44185000      -1.42001000
C       -0.86447000       0.75073000      -0.18472000
C       -0.04030000      -0.37404000      -0.20651000
C       -0.27973000       2.01436000      -0.00670000
C        1.34597000      -0.25097000      -0.05314000
C        1.09682000       2.13536000       0.13924000
H       -0.91219000       2.90565000       0.01746000
C        1.92393000       1.01155000       0.11791000
O        2.04742000      -1.40650000      -0.08509000
H        1.54430000       3.12306000       0.27686000
H        3.00112000       1.13109000       0.23556000
H       -0.47878000      -1.36647000      -0.32567000
C        3.43562000      -1.35373000       0.06228000
H        3.91567000      -0.76644000      -0.74141000
H        3.73288000      -0.92365000       1.03590000
H        3.79955000      -2.38804000       0.00813000
Xe      -1.75308807       4.09067995       0.04958234
