19
Properties=species:S:1:pos:R:3 RH_Sub32.log=T Energy:=T -552954.6484168=T pbc="F F F"
S       -2.12640000      -0.86583000      -0.38329000
C       -0.99051000       0.37875000       0.22903000
C       -3.68960000      -0.05584000      -0.00833000
O       -1.35055000       1.44497000       0.65479000
C        0.43456000      -0.04095000       0.12382000
C        0.82345000      -1.37952000       0.27338000
C        1.43708000       0.91193000      -0.10730000
C        2.16041000      -1.75342000       0.19952000
C        2.77597000       0.55012000      -0.19324000
F        1.11990000       2.18473000      -0.27879000
C        3.13625000      -0.78494000      -0.03561000
H        2.44158000      -2.79992000       0.33055000
H        3.51566000       1.32929000      -0.38518000
H        4.18935000      -1.06878000      -0.09674000
H        0.05318000      -2.12854000       0.47039000
H       -3.45098000       0.95492000       0.35636000
H       -4.23276000      -0.61791000       0.76301000
H       -4.29394000       0.00503000      -0.92258000
Xe       5.59086136      -1.44652664      -0.17809447
