19
Properties=species:S:1:pos:R:3 RH_Sub26.log=T Energy:=T -490793.3038749=T pbc="F F F"
S        2.85538000      -0.94027000       0.00297000
C        1.80263000       0.51966000       0.00054000
H        3.98209000      -0.19867000       0.00436000
O        2.26764000       1.62977000       0.00089000
C        0.34218000       0.24198000      -0.00115000
C       -0.19784000      -1.04724000      -0.00444000
C       -0.52379000       1.34337000      -0.00142000
C       -1.57678000      -1.22915000      -0.00704000
C       -1.89770000       1.15404000      -0.00411000
H       -0.08772000       2.34433000      -0.00107000
C       -2.45029000      -0.13553000      -0.00545000
H       -1.98554000      -2.24278000      -0.01156000
H       -2.56205000       2.02260000      -0.00626000
C       -3.93715000      -0.32777000       0.00865000
H        0.45834000      -1.92141000      -0.00676000
H       -4.36215000      -0.01999000       0.97803000
H       -4.21237000      -1.37799000      -0.15937000
H       -4.42537000       0.28388000      -0.76542000
Xe      -2.52915044      -3.59080782      -0.01757115
