18

C       0.081200000000000     -0.286820000000000     -0.010900000000000
C      -0.796860000000000      0.450280000000000     -0.825950000000000
C      -0.223360000000000     -1.279120000000000      0.931760000000000
C      -2.186950000000000      0.387130000000000     -0.892140000000000
H      -0.331410000000000      1.168260000000000     -1.507940000000000
C      -1.475110000000000     -1.757880000000000      1.333290000000000
H       0.636990000000000     -1.761790000000000      1.405580000000000
C      -3.067940000000000     -0.394210000000000     -0.152130000000000
H      -2.666880000000000      1.050510000000000     -1.620380000000000
C      -2.742670000000000     -1.394290000000000      0.896470000000000
H      -1.455080000000000     -2.536310000000000      2.104400000000000
C      -4.469190000000000     -0.392640000000000     -0.251570000000000
C      -3.962090000000000     -1.926030000000000      1.357080000000000
Cl     -5.383320000000000      0.592880000000000     -1.325570000000000
C      -5.009780000000000     -1.315390000000000      0.659260000000000
H      -4.062220000000000     -2.689440000000000      2.127960000000000
H      -6.074470000000000     -1.511050000000000      0.785240000000000
Kr      1.992570000000000      0.072640000000000     -0.225450000000000
