27

C       0.362080000000000      0.446600000000000     -0.949800000000000
C       1.598660000000000     -0.061690000000000     -0.455240000000000
C       0.617610000000000      1.075520000000000     -2.193070000000000
C       2.630150000000000      0.295720000000000     -1.482330000000000
C       1.838870000000000     -0.725900000000000      0.763370000000000
C       1.971400000000000      0.991330000000000     -2.512110000000000
H      -0.146110000000000      1.549170000000000     -2.812730000000000
C       3.996340000000000      0.032220000000000     -1.502290000000000
C       3.074120000000000     -1.239050000000000      1.194890000000000
C       0.689480000000000     -0.937910000000000      1.736170000000000
H       2.457560000000000      1.388140000000000     -3.403610000000000
C       4.775600000000000     -0.652040000000000     -0.575190000000000
H       4.520630000000000      0.411030000000000     -2.386650000000000
C       4.342880000000000     -1.219600000000000      0.621090000000000
H       3.036190000000000     -1.748630000000000      2.161620000000000
H       5.838330000000000     -0.755690000000000     -0.809490000000000
H       5.118860000000000     -1.720730000000000      1.209160000000000
Kr     -1.490540000000000      0.143370000000000     -0.379790000000000
H      -0.186110000000000     -0.414740000000000      1.316320000000000
C       0.303140000000000     -2.412280000000000      1.834580000000000
H      -0.568950000000000     -2.528600000000000      2.497570000000000
H       0.030540000000000     -2.803850000000000      0.844160000000000
H       1.121120000000000     -3.025310000000000      2.245530000000000
C       0.963770000000000     -0.308700000000000      3.100710000000000
H       1.219430000000000      0.757570000000000      3.001290000000000
H       0.067390000000000     -0.386620000000000      3.735610000000000
H       1.789010000000000     -0.804130000000000      3.636010000000000
