22

C      -0.056060000000000      0.022130000000000     -0.406490000000000
C       0.875570000000000     -0.666660000000000      0.415400000000000
C       0.648700000000000      0.731900000000000     -1.393460000000000
C       2.168210000000000     -0.394920000000000     -0.052080000000000
H       0.639080000000000     -1.324480000000000      1.249220000000000
C       2.030290000000000      0.501080000000000     -1.220880000000000
H       0.219360000000000      1.358320000000000     -2.175410000000000
C       3.353910000000000     -0.906860000000000      0.510940000000000
C       3.031980000000000      1.043290000000000     -2.021890000000000
C       4.667300000000000     -0.664470000000000      0.075720000000000
O       3.124760000000000     -1.699110000000000      1.571060000000000
C       4.411150000000000      0.877940000000000     -1.922430000000000
H       2.679030000000000      1.681820000000000     -2.838950000000000
C       5.113950000000000      0.117530000000000     -0.987240000000000
H       5.458300000000000     -1.154380000000000      0.644190000000000
H       5.018030000000000      1.401830000000000     -2.665520000000000
H       6.202310000000000      0.133270000000000     -1.104600000000000
Kr     -1.974340000000000      0.012850000000000     -0.147550000000000
C       4.172380000000000     -2.323100000000000      2.262010000000000
H       4.745650000000000     -3.005020000000000      1.611330000000000
H       4.862180000000000     -1.590270000000000      2.714270000000000
H       3.703510000000000     -2.908710000000000      3.062550000000000
