18

C       0.505370000000000     -0.016700000000000      0.231100000000000
C       0.972970000000000      0.818380000000000      1.258130000000000
C       1.309600000000000     -0.855670000000000     -0.561660000000000
C       2.270380000000000      1.070960000000000      1.724840000000000
Cl     -0.254950000000000      1.728880000000000      2.118980000000000
C       2.688360000000000     -1.028300000000000     -0.600150000000000
H       0.758180000000000     -1.479760000000000     -1.274760000000000
C       3.477990000000000      0.550850000000000      1.269470000000000
H       2.329750000000000      1.776470000000000      2.556210000000000
C       3.714360000000000     -0.363150000000000      0.248460000000000
C       3.381300000000000     -1.888170000000000     -1.472000000000000
H       4.368260000000000      0.913190000000000      1.794330000000000
C       4.961450000000000     -0.855690000000000     -0.161250000000000
C       4.751540000000000     -1.776820000000000     -1.202240000000000
H       2.916350000000000     -2.525630000000000     -2.223460000000000
H       5.922090000000000     -0.569700000000000      0.266440000000000
H       5.539390000000000     -2.325420000000000     -1.721090000000000
Kr     -1.432010000000000     -0.223760000000000     -0.092410000000000
