18

C       0.372130000000000     -0.290840000000000     -0.055540000000000
C       1.096530000000000      0.233420000000000      1.027740000000000
C       0.895890000000000     -1.000310000000000     -1.150500000000000
C       2.467370000000000      0.193240000000000      1.295160000000000
Cl      0.161600000000000      1.080680000000000      2.253700000000000
C       2.213870000000000     -1.345170000000000     -1.461800000000000
H       0.147910000000000     -1.351350000000000     -1.868470000000000
C       3.492330000000000     -0.363020000000000      0.541420000000000
H       2.771940000000000      0.676060000000000      2.228650000000000
C       3.381840000000000     -1.081210000000000     -0.756800000000000
H       2.344080000000000     -1.904300000000000     -2.394840000000000
C       4.856330000000000     -0.345760000000000      0.880250000000000
C       4.684250000000000     -1.453450000000000     -1.125510000000000
H       5.273950000000000      0.106080000000000      1.779550000000000
C       5.568970000000000     -1.005390000000000     -0.131870000000000
H       4.948540000000000     -2.000230000000000     -2.030250000000000
H       6.650480000000000     -1.150200000000000     -0.143920000000000
Kr     -1.578950000000000     -0.090870000000000     -0.092630000000000
