15

C      -0.171580000000000     -0.125370000000000     -0.083920000000000
C      -1.019770000000000      0.822290000000000     -0.663950000000000
C      -0.817980000000000     -1.239160000000000      0.459530000000000
C      -2.420950000000000      0.710210000000000     -0.705870000000000
O      -0.644210000000000      1.989780000000000     -1.248960000000000
C      -2.218210000000000     -1.384710000000000      0.438740000000000
H      -0.229560000000000     -2.047810000000000      0.897410000000000
C      -3.036540000000000     -0.416430000000000     -0.142840000000000
C      -2.891790000000000      1.893550000000000     -1.370720000000000
C      -1.776760000000000      2.609300000000000     -1.665830000000000
Cl     -2.915020000000000     -2.798470000000000      1.145460000000000
Cl     -4.750560000000000     -0.565230000000000     -0.181680000000000
H      -3.922520000000000      2.157090000000000     -1.592890000000000
H      -1.632400000000000      3.561940000000000     -2.169980000000000
Kr      1.792320000000000     -0.059650000000000     -0.097220000000000
