23

C      -0.190340000000000      0.825450000000000     -0.813750000000000
C       1.225280000000000      0.502410000000000     -0.650840000000000
C      -0.371650000000000      1.774540000000000     -1.788670000000000
C       2.011230000000000      1.235260000000000     -1.573150000000000
C       1.885820000000000     -0.381060000000000      0.252560000000000
H      -1.325930000000000      2.176610000000000     -2.130880000000000
S       1.076050000000000      2.305990000000000     -2.566350000000000
C       3.394970000000000      1.076040000000000     -1.646550000000000
C       3.284790000000000     -0.589550000000000      0.143110000000000
C       1.049890000000000     -1.066170000000000      1.296430000000000
C       4.010920000000000      0.170580000000000     -0.815520000000000
H       3.984860000000000      1.653570000000000     -2.361730000000000
N       3.984850000000000     -1.482230000000000      0.904890000000000
H       5.088750000000000      0.036710000000000     -0.889970000000000
Kr     -1.808550000000000     -0.088820000000000     -0.149360000000000
F       1.770100000000000     -1.669520000000000      2.267190000000000
F       0.255050000000000     -2.016580000000000      0.795320000000000
F       0.263210000000000     -0.194420000000000      1.949240000000000
H       3.486910000000000     -1.990840000000000      1.614390000000000
C       5.401210000000000     -1.677850000000000      0.821780000000000
H       5.690500000000000     -2.451880000000000      1.544540000000000
H       5.976790000000000     -0.765180000000000      1.063880000000000
H       5.723320000000000     -2.022220000000000     -0.177330000000000
