19

C       0.154220000000000      0.058810000000000     -0.144220000000000
C       0.820370000000000     -0.913930000000000      0.583930000000000
C       0.986970000000000      0.880370000000000     -0.934410000000000
C       2.207950000000000     -1.079860000000000      0.567680000000000
O       0.291150000000000     -1.801770000000000      1.473810000000000
C       2.367360000000000      0.718640000000000     -0.964860000000000
H       0.554850000000000      1.664950000000000     -1.558780000000000
C       3.037830000000000     -0.276130000000000     -0.208800000000000
O       2.545490000000000     -2.070990000000000      1.449960000000000
C       1.322020000000000     -2.720970000000000      1.740590000000000
Cl      3.328620000000000      1.754180000000000     -1.964750000000000
O       4.372440000000000     -0.333980000000000     -0.291540000000000
H       1.302560000000000     -3.010520000000000      2.800630000000000
H       1.208790000000000     -3.609960000000000      1.086530000000000
Kr     -1.808070000000000      0.136620000000000     -0.210850000000000
C       5.053440000000000     -1.452720000000000      0.227140000000000
H       4.959040000000000     -1.518890000000000      1.321360000000000
H       4.682210000000000     -2.390560000000000     -0.217020000000000
H       6.108420000000000     -1.317410000000000     -0.042280000000000
