18

C       0.046580000000000     -0.510460000000000     -0.190630000000000
C       1.187800000000000      0.050100000000000      0.384330000000000
C       0.162700000000000     -1.649430000000000     -1.028220000000000
C       2.424620000000000     -0.537400000000000      0.091110000000000
H       1.132800000000000      0.914750000000000      1.049660000000000
C       1.387270000000000     -2.233730000000000     -1.329860000000000
H      -0.750730000000000     -2.094510000000000     -1.430830000000000
C       2.512190000000000     -1.648110000000000     -0.749960000000000
C       3.801310000000000     -0.313510000000000      0.434920000000000
H       1.468180000000000     -3.109900000000000     -1.974780000000000
O       3.795070000000000     -2.026070000000000     -0.882280000000000
O       4.227600000000000      0.656060000000000      1.230100000000000
N       4.591550000000000     -1.181030000000000     -0.134200000000000
Kr     -1.754350000000000      0.152020000000000      0.210420000000000
C       5.623050000000000      0.705920000000000      1.459720000000000
H       5.976950000000000     -0.228910000000000      1.921490000000000
H       6.170410000000000      0.852120000000000      0.515430000000000
H       5.796010000000000      1.552170000000000      2.134840000000000
