24

C      -0.699630000000000      0.324100000000000     -0.803270000000000
C      -1.617800000000000      1.111750000000000     -0.062400000000000
C      -0.963270000000000      0.024660000000000     -2.150380000000000
C      -2.775560000000000      1.541540000000000     -0.733060000000000
C      -1.370700000000000      1.535380000000000      1.394600000000000
C      -2.117390000000000      0.475360000000000     -2.788910000000000
H      -0.245170000000000     -0.578020000000000     -2.714230000000000
C      -3.030210000000000      1.235790000000000     -2.067790000000000
H      -3.509730000000000      2.142810000000000     -0.197200000000000
H      -2.296420000000000      0.229260000000000     -3.838380000000000
H      -3.946980000000000      1.597260000000000     -2.539590000000000
Kr      1.010630000000000     -0.400160000000000     -0.160290000000000
C      -2.584290000000000      2.244620000000000      2.002960000000000
H      -2.364240000000000      2.505150000000000      3.049230000000000
H      -2.824120000000000      3.182090000000000      1.479540000000000
H      -3.481290000000000      1.605700000000000      2.000230000000000
C      -1.068790000000000      0.318700000000000      2.279090000000000
H      -0.145330000000000     -0.194050000000000      1.968070000000000
H      -0.930690000000000      0.637460000000000      3.323900000000000
H      -1.897890000000000     -0.406410000000000      2.252950000000000
C      -0.185830000000000      2.512220000000000      1.427010000000000
H       0.027050000000000      2.817400000000000      2.464370000000000
H       0.723790000000000      2.070090000000000      0.997680000000000
H      -0.417060000000000      3.417080000000000      0.844250000000000
