18

C      -0.428520000000000      0.608050000000000     -0.189980000000000
C       0.822240000000000      0.711860000000000      0.391890000000000
C      -0.884460000000000      1.766810000000000     -0.860100000000000
C       1.594260000000000      1.869140000000000      0.323370000000000
O       1.495050000000000     -0.218370000000000      1.139480000000000
C      -0.107680000000000      2.921650000000000     -0.917620000000000
H      -1.857420000000000      1.766800000000000     -1.355290000000000
C       1.163710000000000      3.006340000000000     -0.324200000000000
O       2.760570000000000      1.672000000000000      1.001960000000000
C       2.779970000000000      0.302740000000000      1.338240000000000
Cl     -0.718520000000000      4.312410000000000     -1.756180000000000
H       1.765160000000000      3.912630000000000     -0.377520000000000
H       3.091270000000000      0.173090000000000      2.387770000000000
C       3.782650000000000     -0.431100000000000      0.437370000000000
Kr     -1.387990000000000     -1.103870000000000     -0.224740000000000
F       3.469410000000000     -0.290440000000000     -0.844010000000000
F       3.796720000000000     -1.725260000000000      0.736830000000000
F       5.004740000000000      0.059350000000000      0.632550000000000
