26

C       0.097010000000000     -0.323800000000000     -0.115440000000000
C       0.208620000000000     -1.573590000000000     -0.761160000000000
C       1.240910000000000      0.156880000000000      0.515230000000000
C       1.422070000000000     -2.271310000000000     -0.734670000000000
C      -0.631180000000000     -2.452220000000000     -1.519990000000000
C       2.468340000000000     -0.556800000000000      0.530760000000000
H       1.204760000000000      1.134140000000000      1.005490000000000
C       2.567120000000000     -1.795020000000000     -0.097380000000000
O       1.288220000000000     -3.429670000000000     -1.401110000000000
H      -1.672740000000000     -2.320110000000000     -1.812500000000000
N       0.004790000000000     -3.527280000000000     -1.884960000000000
C       3.664470000000000      0.067150000000000      1.194280000000000
H       3.496380000000000     -2.366640000000000     -0.099600000000000
Kr     -1.558310000000000      0.710200000000000     -0.093260000000000
H       4.450960000000000     -0.693870000000000      1.332460000000000
H       3.380240000000000      0.411870000000000      2.202950000000000
C       4.252840000000000      1.257180000000000      0.418240000000000
H       3.446690000000000      2.004810000000000      0.302930000000000
C       5.382210000000000      1.899750000000000      1.213730000000000
H       5.787300000000000      2.779600000000000      0.690680000000000
H       5.042290000000000      2.226240000000000      2.209100000000000
H       6.212950000000000      1.189440000000000      1.361000000000000
C       4.714150000000000      0.850790000000000     -0.975280000000000
H       3.890130000000000      0.427260000000000     -1.568640000000000
H       5.115490000000000      1.715680000000000     -1.525290000000000
H       5.512860000000000      0.091660000000000     -0.919120000000000
