15

C       0.100080000000000      0.297050000000000     -0.200720000000000
C       0.994210000000000     -0.416210000000000      0.626720000000000
C       0.572310000000000      1.310670000000000     -1.049070000000000
C       2.322160000000000     -0.049650000000000      0.562060000000000
H       0.657670000000000     -1.237200000000000      1.261640000000000
C       1.931680000000000      1.660260000000000     -1.106820000000000
H      -0.128810000000000      1.838020000000000     -1.700710000000000
C       2.780600000000000      0.958340000000000     -0.278280000000000
O       3.391490000000000     -0.532790000000000      1.266720000000000
H       2.300800000000000      2.441130000000000     -1.773040000000000
O       4.127940000000000      1.096190000000000     -0.088020000000000
C       4.514470000000000     -0.012900000000000      0.646470000000000
H       5.292040000000000      0.241830000000000      1.374850000000000
Cl      5.247690000000000     -1.261960000000000     -0.458520000000000
Kr     -1.776650000000000     -0.269350000000000     -0.206100000000000
