15

C       0.394260000000000     -0.427010000000000     -0.327100000000000
C       1.403310000000000     -0.061360000000000      0.592160000000000
C       0.747840000000000     -1.204000000000000     -1.438800000000000
C       2.697320000000000     -0.491520000000000      0.365450000000000
Cl      1.075050000000000      0.915810000000000      1.984180000000000
C       2.066770000000000     -1.629750000000000     -1.681110000000000
H      -0.037340000000000     -1.512120000000000     -2.133320000000000
C       3.017490000000000     -1.258730000000000     -0.754400000000000
O       3.820310000000000     -0.244810000000000      1.081780000000000
H       2.327050000000000     -2.229780000000000     -2.553640000000000
O       4.355460000000000     -1.500380000000000     -0.750050000000000
C       4.821470000000000     -1.070670000000000      0.513760000000000
H       5.750740000000000     -0.494180000000000      0.392240000000000
H       4.991760000000000     -1.948330000000000      1.168270000000000
Kr     -1.500010000000000      0.016800000000000     -0.034640000000000
