31

C       1.144740000000000     -0.729770000000000     -0.406540000000000
C      -0.206550000000000     -1.263970000000000     -0.369060000000000
C       1.890570000000000     -1.790870000000000     -0.841960000000000
C      -0.115250000000000     -2.606710000000000     -0.771630000000000
C      -1.458370000000000     -0.733570000000000     -0.044020000000000
Cl      3.562640000000000     -1.924250000000000     -1.141480000000000
O       1.178200000000000     -2.923920000000000     -1.058220000000000
C      -1.212160000000000     -3.450360000000000     -0.854260000000000
C      -2.587640000000000     -1.549900000000000     -0.122860000000000
H      -1.535110000000000      0.317610000000000      0.239930000000000
C      -2.445470000000000     -2.894730000000000     -0.521820000000000
H      -1.109790000000000     -4.490250000000000     -1.167910000000000
C      -3.955160000000000     -0.991970000000000      0.196170000000000
H      -3.339950000000000     -3.520970000000000     -0.577220000000000
Kr      1.617000000000000      1.155070000000000     -0.136090000000000
H      -4.682240000000000     -1.817130000000000      0.083570000000000
C      -4.367450000000000      0.112650000000000     -0.785800000000000
H      -4.323810000000000     -0.275830000000000     -1.815980000000000
H      -3.625600000000000      0.929950000000000     -0.735640000000000
C      -5.754480000000000      0.662380000000000     -0.473270000000000
H      -6.007890000000000      1.473760000000000     -1.174930000000000
H      -6.505080000000000     -0.132520000000000     -0.636420000000000
C      -5.851350000000000      1.152400000000000      0.967370000000000
H      -6.870320000000000      1.511710000000000      1.184990000000000
H      -5.180480000000000      2.020930000000000      1.099870000000000
C      -5.450250000000000      0.058370000000000      1.950860000000000
H      -6.185630000000000     -0.765100000000000      1.896670000000000
H      -5.486920000000000      0.436790000000000      2.985400000000000
C      -4.061790000000000     -0.489650000000000      1.641150000000000
H      -3.311830000000000      0.305950000000000      1.799590000000000
H      -3.798840000000000     -1.303910000000000      2.335650000000000
