23

C      -0.107760000000000     -0.099690000000000     -0.136490000000000
C       0.546370000000000     -1.071740000000000      0.661410000000000
C       0.628850000000000      0.789370000000000     -0.922320000000000
C       1.930350000000000     -1.163720000000000      0.706030000000000
H      -0.061270000000000     -1.776920000000000      1.232970000000000
C       2.017490000000000      0.670980000000000     -0.867070000000000
H       0.158200000000000      1.539040000000000     -1.561200000000000
C       2.681140000000000     -0.271170000000000     -0.074230000000000
H       2.412710000000000     -1.920120000000000      1.328320000000000
O       2.917290000000000      1.414530000000000     -1.529850000000000
C       4.069920000000000      0.002510000000000     -0.346550000000000
N       4.183010000000000      0.986100000000000     -1.195190000000000
C       5.295750000000000     -0.668780000000000      0.194140000000000
Kr     -2.064040000000000     -0.101000000000000     -0.158690000000000
H       6.146040000000000     -0.146110000000000     -0.272830000000000
C       5.396000000000000     -0.496530000000000      1.709370000000000
H       6.330050000000000     -0.940960000000000      2.085670000000000
H       5.385930000000000      0.566720000000000      1.990740000000000
H       4.559270000000000     -0.989980000000000      2.228130000000000
C       5.346050000000000     -2.138970000000000     -0.220330000000000
H       5.300140000000000     -2.245690000000000     -1.313960000000000
H       6.279420000000000     -2.605310000000000      0.130320000000000
H       4.506580000000000     -2.708410000000000      0.208210000000000
