27

C       0.619680000000000     -0.780770000000000     -0.943890000000000
C      -0.752230000000000     -0.629450000000000     -0.687990000000000
C       0.992910000000000     -1.795600000000000     -1.828800000000000
C      -1.736060000000000     -1.461900000000000     -1.280320000000000
S      -1.481590000000000      0.540400000000000      0.373850000000000
C       0.031880000000000     -2.621720000000000     -2.437550000000000
H       2.050920000000000     -1.951690000000000     -2.056330000000000
C      -1.320300000000000     -2.466330000000000     -2.169770000000000
C      -3.058090000000000     -1.115940000000000     -0.839400000000000
C      -3.087680000000000     -0.077150000000000      0.044460000000000
H       0.360980000000000     -3.400760000000000     -3.129730000000000
H      -2.060490000000000     -3.117260000000000     -2.641170000000000
H      -3.951460000000000     -1.637410000000000     -1.182830000000000
C      -4.278830000000000      0.569650000000000      0.716040000000000
Kr      1.917040000000000      0.419410000000000     -0.106490000000000
C      -5.568280000000000     -0.128960000000000      0.284190000000000
H      -6.431860000000000      0.343500000000000      0.776310000000000
H      -5.719450000000000     -0.056870000000000     -0.803360000000000
H      -5.561890000000000     -1.193470000000000      0.563100000000000
C      -4.128710000000000      0.457040000000000      2.240210000000000
H      -3.215980000000000      0.961960000000000      2.591760000000000
H      -4.990200000000000      0.922320000000000      2.744600000000000
H      -4.071900000000000     -0.596770000000000      2.552330000000000
C      -4.347130000000000      2.050500000000000      0.314330000000000
H      -5.212130000000000      2.536480000000000      0.792630000000000
H      -3.439240000000000      2.591870000000000      0.620980000000000
H      -4.447870000000000      2.156580000000000     -0.776250000000000
