22

C      -0.149330000000000      0.364840000000000      0.527350000000000
C      -1.149180000000000     -0.331940000000000     -0.171900000000000
C      -0.567720000000000      1.332240000000000      1.439180000000000
C      -2.520650000000000     -0.062740000000000      0.033710000000000
S      -0.911190000000000     -1.557600000000000     -1.389480000000000
C      -1.933820000000000      1.620170000000000      1.669600000000000
H       0.183970000000000      1.897760000000000      1.998960000000000
C      -2.902130000000000      0.923670000000000      0.956890000000000
C      -3.348090000000000     -0.880470000000000     -0.818430000000000
C      -2.620460000000000     -1.710020000000000     -1.621490000000000
C      -2.310680000000000      2.671470000000000      2.673340000000000
H      -3.963050000000000      1.146450000000000      1.095540000000000
O      -4.702000000000000     -0.805860000000000     -0.821820000000000
H      -3.022210000000000     -2.414470000000000     -2.348390000000000
Kr      1.737360000000000     -0.047560000000000      0.220910000000000
H      -1.816210000000000      3.630980000000000      2.453930000000000
H      -2.003440000000000      2.376570000000000      3.689740000000000
H      -3.395670000000000      2.845220000000000      2.687150000000000
C      -5.335190000000000     -1.564340000000000      0.184160000000000
H      -5.140170000000000     -2.643370000000000      0.054640000000000
H      -4.998900000000000     -1.268370000000000      1.193360000000000
H      -6.414630000000000     -1.381200000000000      0.098070000000000
