18

C      -0.184840000000000     -0.069440000000000     -0.045990000000000
C      -1.030530000000000      0.991550000000000     -0.400820000000000
C      -0.860550000000000     -1.221600000000000      0.361640000000000
C      -2.427240000000000      0.927810000000000     -0.348760000000000
O      -0.676120000000000      2.228890000000000     -0.814670000000000
C      -2.265980000000000     -1.307270000000000      0.422280000000000
H      -0.285700000000000     -2.109530000000000      0.634150000000000
C      -3.089440000000000     -0.238790000000000      0.066840000000000
C      -2.830530000000000      2.236680000000000     -0.759100000000000
N      -1.802030000000000      2.986870000000000     -1.023680000000000
Cl     -2.985860000000000     -2.777060000000000      0.995620000000000
O      -4.436350000000000     -0.260160000000000      0.139300000000000
H      -3.836320000000000      2.643790000000000     -0.856920000000000
Kr      1.780940000000000     -0.136950000000000     -0.154420000000000
C      -5.103270000000000     -0.999700000000000     -0.866040000000000
H      -4.884990000000000     -0.589480000000000     -1.867040000000000
H      -4.822650000000000     -2.064260000000000     -0.840110000000000
H      -6.178040000000000     -0.906550000000000     -0.664780000000000
