17

C      -0.525000000000000     -0.568030000000000     -0.043490000000000
C      -1.629520000000000     -0.037460000000000     -0.743990000000000
C      -0.752290000000000     -1.724660000000000      0.696360000000000
C      -2.878070000000000     -0.664390000000000     -0.662840000000000
C      -1.901090000000000      1.070390000000000     -1.611040000000000
C      -2.024170000000000     -2.353330000000000      0.770260000000000
H       0.083990000000000     -2.186970000000000      1.228880000000000
C      -3.111080000000000     -1.817630000000000      0.086130000000000
O      -3.771270000000000      0.016600000000000     -1.398700000000000
H      -1.218500000000000      1.838270000000000     -1.974750000000000
N      -3.147740000000000      1.093710000000000     -1.983640000000000
C      -2.172190000000000     -3.603440000000000      1.587360000000000
H      -4.100650000000000     -2.275280000000000      0.125690000000000
Kr      1.246060000000000      0.252190000000000     -0.093890000000000
H      -3.208620000000000     -3.967420000000000      1.589250000000000
H      -1.867350000000000     -3.432930000000000      2.631830000000000
H      -1.529550000000000     -4.406280000000000      1.192280000000000
