31

C      -1.061680000000000      0.548510000000000     -0.157290000000000
C       0.061620000000000      0.994000000000000      0.517660000000000
C      -1.779880000000000      1.529410000000000     -0.879490000000000
C       0.499220000000000      2.320180000000000      0.463120000000000
O       0.900340000000000      0.291690000000000      1.323030000000000
C      -1.351090000000000      2.854250000000000     -0.904270000000000
H      -2.674170000000000      1.256350000000000     -1.442960000000000
C      -0.191170000000000      3.287670000000000     -0.237690000000000
O       1.635090000000000      2.443640000000000      1.190380000000000
C       2.055390000000000      1.102950000000000      1.469820000000000
Cl     -2.266530000000000      4.022910000000000     -1.806490000000000
H       0.139420000000000      4.324630000000000     -0.280290000000000
H       2.385390000000000      1.057680000000000      2.520250000000000
C       3.143480000000000      0.662140000000000      0.507970000000000
Kr     -1.418470000000000     -1.376560000000000     -0.260050000000000
H       2.725740000000000      0.801550000000000     -0.507630000000000
C       3.462870000000000     -0.821790000000000      0.684520000000000
H       2.546810000000000     -1.408730000000000      0.524550000000000
H       3.792260000000000     -0.998130000000000      1.726260000000000
C       4.559720000000000     -1.265670000000000     -0.276070000000000
H       4.802750000000000     -2.327360000000000     -0.106870000000000
H       4.174830000000000     -1.197500000000000     -1.309610000000000
C       5.811700000000000     -0.404730000000000     -0.145560000000000
H       6.573650000000000     -0.717900000000000     -0.877660000000000
H       6.257650000000000     -0.563240000000000      0.853480000000000
C       5.487120000000000      1.075550000000000     -0.317800000000000
H       5.148860000000000      1.254820000000000     -1.354250000000000
H       6.392050000000000      1.688370000000000     -0.177370000000000
C       4.394390000000000      1.526290000000000      0.645250000000000
H       4.768960000000000      1.449760000000000      1.683670000000000
H       4.138530000000000      2.584330000000000      0.480740000000000
