19

C       0.089490000000000      0.707430000000000     -0.038170000000000
C       1.363010000000000      0.323310000000000     -0.443040000000000
C      -0.055820000000000      2.064680000000000      0.283570000000000
C       2.474190000000000      1.184270000000000     -0.530750000000000
O       1.744830000000000     -0.946570000000000     -0.789210000000000
C       1.037850000000000      2.942890000000000      0.203240000000000
H      -1.029970000000000      2.457830000000000      0.579370000000000
C       2.305790000000000      2.534370000000000     -0.197820000000000
C       3.575760000000000      0.369850000000000     -0.970760000000000
C       3.059220000000000     -0.886120000000000     -1.099050000000000
Cl      0.789690000000000      4.611450000000000      0.622550000000000
H       3.128790000000000      3.247960000000000     -0.244230000000000
H       4.602510000000000      0.661760000000000     -1.169230000000000
O       3.648060000000000     -2.013850000000000     -1.451710000000000
Kr     -1.448300000000000     -0.508630000000000      0.031440000000000
C       2.830220000000000     -3.140080000000000     -1.706920000000000
H       2.260670000000000     -3.434950000000000     -0.812100000000000
H       2.119680000000000     -2.940360000000000     -2.524050000000000
H       3.509960000000000     -3.949360000000000     -1.997080000000000
