14

C       0.867850000000000     -0.730210000000000      0.077440000000000
C       1.015090000000000     -1.832870000000000      1.090940000000000
C       1.992380000000000     -0.714270000000000     -0.691880000000000
H       0.901710000000000     -1.470140000000000      2.129100000000000
H       0.201420000000000     -2.567820000000000      0.948900000000000
C       2.368690000000000     -2.400560000000000      0.811390000000000
H       2.178970000000000     -0.065060000000000     -1.552120000000000
C       2.933290000000000     -1.748370000000000     -0.231580000000000
H       2.823060000000000     -3.216260000000000      1.376830000000000
C       4.265780000000000     -1.989470000000000     -0.855690000000000
Kr     -0.807760000000000      0.224270000000000     -0.124130000000000
H       4.163480000000000     -2.248890000000000     -1.922360000000000
H       4.800620000000000     -2.809130000000000     -0.355860000000000
H       4.898590000000000     -1.087750000000000     -0.807060000000000
