12

C      -0.813800000000000      0.970830000000000     -0.298740000000000
C      -1.049510000000000      2.130940000000000      0.408900000000000
O      -1.791610000000000      0.811670000000000     -1.241960000000000
C      -2.245680000000000      2.696900000000000     -0.152150000000000
C      -0.217590000000000      2.691870000000000      1.512470000000000
C      -2.641170000000000      1.854720000000000     -1.144900000000000
H      -2.738590000000000      3.618900000000000      0.151240000000000
H      -3.475720000000000      1.864270000000000     -1.841930000000000
Kr      0.592400000000000     -0.365350000000000     -0.190310000000000
H       0.099920000000000      3.719950000000000      1.278020000000000
H       0.689360000000000      2.089530000000000      1.657600000000000
H      -0.772330000000000      2.732010000000000      2.463910000000000
