19

C       0.321480000000000     -0.565360000000000     -0.319490000000000
C       1.558110000000000     -0.259750000000000      0.366670000000000
C       0.640970000000000     -1.522440000000000     -1.262420000000000
C       2.574180000000000     -1.055930000000000     -0.224760000000000
C       1.903980000000000      0.609550000000000      1.415980000000000
H      -0.012500000000000     -2.042060000000000     -1.961240000000000
N       1.983670000000000     -1.812770000000000     -1.206350000000000
C       3.919250000000000     -1.010620000000000      0.177320000000000
C       3.227030000000000      0.665300000000000      1.825010000000000
H       1.136310000000000      1.215460000000000      1.902530000000000
H       2.462740000000000     -2.470700000000000     -1.803360000000000
C       4.215180000000000     -0.130340000000000      1.212900000000000
C       4.952560000000000     -1.871620000000000     -0.483330000000000
H       3.514060000000000      1.329770000000000      2.643490000000000
H       5.248830000000000     -0.061640000000000      1.563080000000000
Kr     -1.476680000000000      0.095440000000000      0.077050000000000
H       5.023180000000000     -1.663330000000000     -1.564730000000000
H       4.716440000000000     -2.943770000000000     -0.372450000000000
H       5.947310000000000     -1.704800000000000     -0.048280000000000
