24

C      -0.304020000000000     -0.100060000000000      0.286260000000000
C      -1.214760000000000     -0.715780000000000     -0.572940000000000
N      -1.018760000000000      0.389810000000000      1.379290000000000
C      -2.529940000000000     -0.570430000000000      0.020000000000000
N      -0.965230000000000     -1.389850000000000     -1.760720000000000
C      -2.350850000000000      0.126770000000000      1.243270000000000
H      -0.588800000000000      0.799500000000000      2.194380000000000
C      -3.825250000000000     -0.982380000000000     -0.366570000000000
C      -3.420410000000000      0.437260000000000      2.091020000000000
C      -4.878220000000000     -0.669190000000000      0.488530000000000
C      -4.071960000000000     -1.736100000000000     -1.641340000000000
C      -4.683440000000000      0.030080000000000      1.693640000000000
H      -3.262130000000000      0.974260000000000      3.028860000000000
H      -5.888740000000000     -0.984170000000000      0.215060000000000
H      -5.545210000000000      0.249820000000000      2.328440000000000
Kr      1.635720000000000      0.155400000000000      0.250360000000000
H      -3.377450000000000     -2.582610000000000     -1.746870000000000
H      -3.939840000000000     -1.088830000000000     -2.526100000000000
H      -5.100000000000000     -2.122440000000000     -1.676440000000000
H      -1.645250000000000     -1.190530000000000     -2.482920000000000
C       0.376980000000000     -1.546340000000000     -2.247460000000000
H       0.358940000000000     -2.147720000000000     -3.167920000000000
H       0.990150000000000     -2.076450000000000     -1.504050000000000
H       0.892620000000000     -0.588060000000000     -2.476130000000000
