27

C       0.344140000000000     -0.631720000000000     -0.278930000000000
C       0.343370000000000     -1.814370000000000     -1.058330000000000
C      -0.871380000000000     -0.139230000000000      0.203600000000000
H       1.295170000000000     -2.226470000000000     -1.409550000000000
N      -0.754420000000000     -2.486870000000000     -1.389600000000000
C      -2.051150000000000     -0.823750000000000     -0.123470000000000
H      -0.895310000000000      0.762220000000000      0.821390000000000
C      -1.890430000000000     -1.986960000000000     -0.927990000000000
C      -3.463110000000000     -0.670280000000000      0.129560000000000
N      -3.133870000000000     -2.509680000000000     -1.147190000000000
C      -4.068940000000000     -1.724700000000000     -0.516820000000000
C      -4.137770000000000      0.423950000000000      0.925790000000000
H      -3.310830000000000     -3.346050000000000     -1.684840000000000
H      -5.124980000000000     -1.977830000000000     -0.575590000000000
Kr      2.060680000000000      0.199150000000000      0.177960000000000
C      -5.653270000000000      0.220900000000000      0.941940000000000
H      -6.139450000000000      1.019980000000000      1.522380000000000
H      -6.073040000000000      0.243410000000000     -0.075850000000000
H      -5.923510000000000     -0.740520000000000      1.405590000000000
C      -3.621000000000000      0.403630000000000      2.371520000000000
H      -2.531870000000000      0.548230000000000      2.417560000000000
H      -4.093910000000000      1.203240000000000      2.964210000000000
H      -3.847020000000000     -0.560400000000000      2.851570000000000
C      -3.831380000000000      1.786160000000000      0.284940000000000
H      -4.303460000000000      2.600260000000000      0.858240000000000
H      -2.749250000000000      1.981410000000000      0.249690000000000
H      -4.210570000000000      1.825250000000000     -0.747590000000000
