27

C       0.396980000000000     -0.507530000000000     -0.578530000000000
C       0.332160000000000     -1.398770000000000     -1.674390000000000
C      -0.799280000000000     -0.177480000000000      0.069020000000000
H       1.259580000000000     -1.691840000000000     -2.177790000000000
N      -0.789600000000000     -1.925820000000000     -2.143670000000000
C      -2.030870000000000     -0.699160000000000     -0.377690000000000
Cl     -0.685010000000000      0.905190000000000      1.430300000000000
C      -1.893570000000000     -1.573490000000000     -1.506020000000000
C      -3.449090000000000     -0.646160000000000     -0.064030000000000
N      -3.137070000000000     -2.013480000000000     -1.844000000000000
C      -4.055090000000000     -1.465920000000000     -0.991270000000000
C      -4.207270000000000      0.111750000000000      1.011960000000000
H      -3.317070000000000     -2.651380000000000     -2.606120000000000
H      -5.110080000000000     -1.700380000000000     -1.102560000000000
Kr      2.179220000000000      0.052020000000000      0.053780000000000
C      -3.753080000000000     -0.344170000000000      2.405950000000000
H      -4.305630000000000      0.204120000000000      3.185960000000000
H      -3.948480000000000     -1.419170000000000      2.539860000000000
H      -2.681610000000000     -0.171960000000000      2.565320000000000
C      -4.008720000000000      1.624110000000000      0.834010000000000
H      -4.388700000000000      1.947780000000000     -0.147370000000000
H      -4.558500000000000      2.176170000000000      1.613350000000000
H      -2.951020000000000      1.907600000000000      0.900540000000000
C      -5.708960000000000     -0.173560000000000      0.898300000000000
H      -6.249820000000000      0.380480000000000      1.680230000000000
H      -6.113720000000000      0.146570000000000     -0.074370000000000
H      -5.933070000000000     -1.242690000000000      1.035960000000000
