26

C      -0.350730000000000      0.292620000000000     -0.233210000000000
C      -0.839810000000000      1.449370000000000      0.320100000000000
O      -1.405170000000000     -0.288860000000000     -0.906700000000000
C      -0.123350000000000      2.480370000000000      1.134080000000000
N      -2.179950000000000      1.575270000000000     -0.011920000000000
C      -2.458110000000000      0.534210000000000     -0.727780000000000
C      -3.763820000000000      0.133530000000000     -1.329760000000000
Kr      1.385740000000000     -0.571580000000000     -0.232620000000000
H      -3.621100000000000      0.130900000000000     -2.426670000000000
C      -4.135870000000000     -1.289480000000000     -0.907790000000000
H      -5.081620000000000     -1.596620000000000     -1.378770000000000
H      -3.357240000000000     -2.007780000000000     -1.203330000000000
H      -4.262880000000000     -1.349110000000000      0.185050000000000
C      -4.845560000000000      1.144980000000000     -0.980350000000000
H      -4.559870000000000      2.157750000000000     -1.295660000000000
H      -5.793350000000000      0.875600000000000     -1.469350000000000
H      -5.010100000000000      1.176910000000000      0.107170000000000
H       0.889070000000000      2.086580000000000      1.322110000000000
C       0.013870000000000      3.776280000000000      0.335490000000000
H       0.529570000000000      4.548780000000000      0.927170000000000
H       0.590730000000000      3.604430000000000     -0.584910000000000
H      -0.978960000000000      4.161480000000000      0.055300000000000
C      -0.832200000000000      2.710010000000000      2.467100000000000
H      -0.872480000000000      1.786170000000000      3.065440000000000
H      -0.314230000000000      3.478170000000000      3.061800000000000
H      -1.867360000000000      3.042930000000000      2.296130000000000
