32

C      -0.132650000000000      0.252330000000000     -0.310650000000000
C       0.684660000000000     -0.732720000000000      0.248740000000000
C       0.514180000000000      1.314750000000000     -0.948110000000000
C       2.083740000000000     -0.658340000000000      0.201220000000000
H       0.200010000000000     -1.591190000000000      0.713510000000000
N       1.834810000000000      1.405460000000000     -1.010730000000000
H      -0.053590000000000      2.119540000000000     -1.431300000000000
C       2.620050000000000      0.474900000000000     -0.462800000000000
C       2.926970000000000     -1.776470000000000      0.836920000000000
C       4.097610000000000      0.788110000000000     -0.647340000000000
Kr     -2.074380000000000      0.022010000000000     -0.260690000000000
C       2.043410000000000     -2.861540000000000      1.465480000000000
H       2.685920000000000     -3.639800000000000      1.904180000000000
H       1.409830000000000     -2.463900000000000      2.272560000000000
H       1.392270000000000     -3.348090000000000      0.724140000000000
C       3.779510000000000     -2.477380000000000     -0.234140000000000
H       4.487770000000000     -1.806150000000000     -0.735620000000000
H       4.360830000000000     -3.294460000000000      0.221970000000000
H       3.131720000000000     -2.914640000000000     -1.009140000000000
C       3.798700000000000     -1.213110000000000      1.971760000000000
H       4.382250000000000     -2.023400000000000      2.437070000000000
H       4.506540000000000     -0.444310000000000      1.637660000000000
H       3.164990000000000     -0.763420000000000      2.751650000000000
H       4.700730000000000     -0.003740000000000     -0.190500000000000
C       4.440970000000000      0.840810000000000     -2.134900000000000
H       5.503050000000000      1.091480000000000     -2.282440000000000
H       4.244880000000000     -0.125250000000000     -2.625710000000000
H       3.825060000000000      1.602910000000000     -2.634180000000000
C       4.443050000000000      2.102470000000000      0.050800000000000
H       4.248640000000000      2.044880000000000      1.133400000000000
H       5.505050000000000      2.355310000000000     -0.093580000000000
H       3.827850000000000      2.916380000000000     -0.360140000000000
