14

C      -0.764020000000000      0.057260000000000     -0.346950000000000
C      -1.426670000000000      1.043760000000000     -1.112540000000000
C      -1.568580000000000     -0.874070000000000      0.280510000000000
N      -2.743210000000000      1.106220000000000     -1.228310000000000
H      -0.874700000000000      1.807770000000000     -1.667700000000000
C      -2.960240000000000     -0.732060000000000      0.111140000000000
H      -1.171580000000000     -1.705260000000000      0.867240000000000
N      -3.509760000000000      0.229030000000000     -0.614380000000000
O      -3.752290000000000     -1.615320000000000      0.717620000000000
Kr      1.178530000000000     -0.073980000000000     -0.201690000000000
C      -5.147020000000000     -1.474870000000000      0.534780000000000
H      -5.502420000000000     -0.502860000000000      0.908610000000000
H      -5.418200000000000     -1.546360000000000     -0.529180000000000
H      -5.607990000000000     -2.293020000000000      1.101790000000000
