24

C       0.793410000000000     -0.165790000000000     -1.025420000000000
C       1.169810000000000     -1.477050000000000     -0.659930000000000
C       1.571460000000000      0.551350000000000     -1.946840000000000
C       2.336420000000000     -2.012670000000000     -1.225270000000000
C       0.350040000000000     -2.290920000000000      0.305920000000000
C       2.720250000000000     -0.008470000000000     -2.505810000000000
H       1.274530000000000      1.564730000000000     -2.232830000000000
C       3.106130000000000     -1.295230000000000     -2.137590000000000
H       2.636370000000000     -3.026130000000000     -0.942800000000000
H       0.675980000000000     -3.343970000000000      0.258880000000000
C       0.419640000000000     -1.820240000000000      1.766150000000000
H      -0.700470000000000     -2.260340000000000     -0.022690000000000
H       3.310830000000000      0.562620000000000     -3.226620000000000
H       4.006870000000000     -1.743970000000000     -2.563120000000000
Kr     -0.836410000000000      0.669330000000000     -0.324910000000000
H       0.149330000000000     -0.746110000000000      1.770980000000000
C      -0.617550000000000     -2.550820000000000      2.608100000000000
H      -0.598990000000000     -2.209570000000000      3.654830000000000
H      -1.632320000000000     -2.385310000000000      2.214490000000000
H      -0.430260000000000     -3.637730000000000      2.607910000000000
C       1.819170000000000     -1.966710000000000      2.348540000000000
H       2.574810000000000     -1.438310000000000      1.747010000000000
H       1.869700000000000     -1.569660000000000      3.374260000000000
H       2.114680000000000     -3.028880000000000      2.387190000000000
