15

C       0.800450000000000     -0.614210000000000     -0.017620000000000
C       1.097120000000000     -1.390690000000000      1.123610000000000
C       1.733850000000000     -0.503630000000000     -1.057050000000000
C       2.342650000000000     -2.032810000000000      1.179670000000000
C       0.106300000000000     -1.543370000000000      2.243790000000000
C       2.950220000000000     -1.168650000000000     -0.963380000000000
H       1.529920000000000      0.091670000000000     -1.950480000000000
C       3.273470000000000     -1.933160000000000      0.149290000000000
H       2.586910000000000     -2.635350000000000      2.059080000000000
H       0.496740000000000     -2.199130000000000      3.034610000000000
H      -0.140700000000000     -0.571140000000000      2.700770000000000
H      -0.837810000000000     -1.963900000000000      1.865730000000000
F       3.829940000000000     -1.060170000000000     -1.960340000000000
H       4.240350000000000     -2.436960000000000      0.196180000000000
Kr     -0.935710000000000      0.271020000000000     -0.210900000000000
