15

C       0.628430000000000     -0.207280000000000     -0.171970000000000
C       1.239020000000000     -0.882960000000000      0.907240000000000
C       1.409210000000000      0.191060000000000     -1.266220000000000
C       2.617420000000000     -1.126450000000000      0.856310000000000
C       0.437590000000000     -1.345700000000000      2.090530000000000
C       2.778270000000000     -0.064680000000000     -1.315170000000000
H       0.941460000000000      0.713870000000000     -2.105450000000000
C       3.372700000000000     -0.723370000000000     -0.242290000000000
H       3.111260000000000     -1.643420000000000      1.681970000000000
H       1.069220000000000     -1.863070000000000      2.825740000000000
H      -0.052530000000000     -0.497930000000000      2.596040000000000
H      -0.364000000000000     -2.024950000000000      1.763240000000000
H       3.381140000000000      0.242890000000000     -2.171160000000000
Cl      5.076590000000000     -1.044320000000000     -0.268870000000000
Kr     -1.309740000000000      0.088780000000000     -0.216970000000000
