21

C      -0.257830000000000     -0.699810000000000     -0.662950000000000
C      -0.120940000000000     -1.661860000000000     -1.674740000000000
C      -1.520340000000000     -0.537640000000000     -0.073520000000000
C      -1.210120000000000     -2.418990000000000     -2.110870000000000
H       0.866740000000000     -1.832180000000000     -2.110760000000000
C      -2.632040000000000     -1.289550000000000     -0.507040000000000
O      -1.681720000000000      0.431100000000000      0.862460000000000
C      -2.459400000000000     -2.227770000000000     -1.529820000000000
H      -1.077730000000000     -3.160910000000000     -2.901430000000000
C      -3.918440000000000     -1.004930000000000      0.114750000000000
C      -2.703750000000000      0.252310000000000      1.841350000000000
H      -3.323030000000000     -2.807620000000000     -1.866390000000000
C      -3.977110000000000     -0.240560000000000      1.213760000000000
H      -4.822450000000000     -1.417310000000000     -0.341780000000000
C      -2.211750000000000     -0.670230000000000      2.947720000000000
H      -2.857060000000000      1.262010000000000      2.253910000000000
H      -4.925160000000000     -0.005430000000000      1.704110000000000
Kr      1.347060000000000      0.235360000000000     -0.016800000000000
H      -2.968280000000000     -0.757520000000000      3.741890000000000
H      -1.280660000000000     -0.279650000000000      3.384100000000000
H      -2.018180000000000     -1.675850000000000      2.544810000000000
