27

C      -0.068590000000000     -0.399930000000000     -0.113030000000000
C      -0.551260000000000     -1.523500000000000     -0.794360000000000
C      -0.999730000000000      0.372890000000000      0.594770000000000
C      -1.908030000000000     -1.844490000000000     -0.799690000000000
H       0.157960000000000     -2.176240000000000     -1.309690000000000
C      -2.382000000000000      0.081710000000000      0.571340000000000
O      -0.549510000000000      1.487760000000000      1.228290000000000
C      -2.842990000000000     -1.053810000000000     -0.127940000000000
H      -2.235810000000000     -2.735850000000000     -1.337310000000000
C      -3.261370000000000      1.041960000000000      1.236160000000000
C      -1.284310000000000      1.932150000000000      2.351250000000000
C      -4.324810000000000     -1.372890000000000     -0.190420000000000
C      -2.752970000000000      1.957070000000000      2.073340000000000
H      -4.331560000000000      1.025680000000000      1.022780000000000
H      -1.058760000000000      1.277200000000000      3.219900000000000
H      -0.893870000000000      2.931560000000000      2.590080000000000
H      -3.383450000000000      2.696730000000000      2.573040000000000
Kr      1.871070000000000     -0.079960000000000     -0.054850000000000
H      -4.778810000000000     -1.007570000000000      0.745320000000000
C      -4.980960000000000     -0.625320000000000     -1.354780000000000
H      -6.067430000000000     -0.805740000000000     -1.379780000000000
H      -4.814270000000000      0.460310000000000     -1.287510000000000
H      -4.557210000000000     -0.963540000000000     -2.313680000000000
C      -4.625540000000000     -2.866650000000000     -0.266890000000000
H      -4.121340000000000     -3.422100000000000      0.537830000000000
H      -5.708730000000000     -3.040560000000000     -0.177080000000000
H      -4.308680000000000     -3.300550000000000     -1.228040000000000
