16

O  2.526870 0.523530 -0.442830
H  3.349790 0.846880 -0.064950
C  2.008440 -0.465990 0.410810
H  2.687200 -1.340250 0.462460
H  1.882500 -0.087450 1.444840
C  -0.478650 0.022120 0.012960
O  -1.644730 -0.660030 -0.073110
C  -0.366320 1.348900 0.173360
H  -1.229300 2.008660 0.261910
C  0.668620 -0.940050 -0.106750
H  0.379150 -1.853690 0.437240
H  0.778100 -1.238880 -1.164170
C  -2.837240 0.069050 -0.042990
H  -2.959330 0.610730 0.912270
H  -2.885470 0.802820 -0.867480
H  -3.657180 -0.652530 -0.152650
