16

O  -0.357220 1.624670 -0.693570
H  -0.458840 2.579150 -0.751990
C  -0.264450 1.274310 0.664570
H  0.527560 1.851500 1.178420
H  -1.216930 1.465500 1.199570
C  -0.875040 -1.184460 0.232950
C  -1.963600 -0.916970 -0.488180
H  -2.606760 -1.722790 -0.852470
C  0.082900 -0.195850 0.846220
H  0.036600 -0.357880 1.939420
O  1.421410 -0.501090 0.528280
H  -2.235250 0.106960 -0.754670
C  1.761250 -0.501390 -0.833960
H  1.073660 -1.124870 -1.433890
H  1.756620 0.511780 -1.267920
H  2.773600 -0.923860 -0.908630
