25

N  -0.252350 1.208230 0.896920
H  -0.545950 1.641830 0.024210
H  0.279720 1.900020 1.420360
C  0.537330 0.015270 0.663060
C  1.992640 0.296690 0.214290
H  0.619680 -0.503110 1.639190
C  -3.408240 0.644100 -0.028140
H  -4.105460 1.245140 -0.618470
C  -2.648960 -0.296120 -0.591320
H  -2.725720 -0.455630 -1.676140
C  -0.207600 -0.939250 -0.270590
H  0.336330 -1.895470 -0.284830
H  -0.167720 -0.556340 -1.306250
C  -1.674100 -1.183770 0.120830
H  -1.933520 -2.229260 -0.120660
H  -1.791780 -1.069460 1.209880
H  2.404500 0.961220 0.998460
C  2.853890 -0.960610 0.195960
H  3.917640 -0.710030 0.062260
H  2.759840 -1.527110 1.136510
H  2.572980 -1.633600 -0.629870
C  2.081570 1.051620 -1.106670
H  1.457290 1.958310 -1.094050
H  3.116470 1.365510 -1.312090
H  1.755190 0.429160 -1.955130
