21

S  1.788680 -1.553140 -0.127230
H  1.511700 -1.650310 1.190480
C  1.779620 0.265280 -0.234330
H  2.430390 0.666440 0.560170
H  2.291880 0.471020 -1.187410
C  -2.493740 -0.177460 0.050810
H  -3.148390 0.673080 0.286530
C  -2.731090 -0.883820 -1.055960
C  0.423510 0.969820 -0.222210
H  -0.168460 0.571710 -1.064960
C  0.648630 2.460020 -0.466390
C  -1.373010 -0.428510 1.009440
H  -0.853030 -1.356150 0.727890
H  -1.791370 -0.581840 2.020140
C  -0.375860 0.735370 1.069730
H  0.319630 0.583610 1.914930
H  -0.935190 1.654310 1.316990
H  -2.096270 -1.732160 -1.332740
H  1.220040 2.639400 -1.390630
H  1.207220 2.919460 0.366390
H  -0.310970 2.991460 -0.556750
