19

O  1.386420 0.943340 1.113560
H  0.981350 1.613510 0.551610
C  2.092690 0.034660 0.311840
H  2.449520 0.507690 -0.624140
H  2.996690 -0.258420 0.872790
C  -1.731550 -0.829310 0.404930
H  -2.174230 -1.827890 0.314270
C  -1.823750 -0.162150 1.552640
C  1.321550 -1.241270 -0.014600
H  0.862950 -1.606840 0.919180
H  2.059180 -2.004710 -0.315670
C  -1.014040 -0.368400 -0.839300
C  -0.759880 1.069900 -0.857140
H  -1.686810 -0.544070 -1.698650
C  0.273590 -1.182010 -1.121070
H  0.725220 -0.800910 -2.052680
H  -0.058410 -2.209940 -1.341420
H  -1.365330 0.821220 1.684980
N  -0.526140 2.203850 -0.892970
