18

O  -0.634470 1.980910 0.260490
H  -0.313420 1.932140 1.164530
C  -1.576390 0.960680 0.059910
H  -2.212290 0.792240 0.950510
H  -2.247700 1.282590 -0.751830
C  2.138830 -0.502430 -0.181140
H  2.525980 -1.477620 -0.504920
C  2.483830 0.591400 -0.861750
C  -0.968540 -0.370490 -0.365850
H  -0.349440 -0.206580 -1.264860
F  -2.036900 -1.177150 -0.722920
C  1.215430 -0.522160 0.999340
H  1.121070 0.497820 1.401010
H  1.667260 -1.126380 1.803940
C  -0.163030 -1.112390 0.685120
H  -0.763130 -1.185630 1.608800
H  -0.041440 -2.144260 0.314750
H  2.086490 1.574430 -0.589080
