22

O  -1.453980 -0.055750 -1.537440
H  -0.596840 0.351330 -1.328210
C  -2.184650 -0.100150 -0.351940
H  -2.463380 0.916710 0.008190
H  -3.135090 -0.608120 -0.585180
C  1.515680 -1.222070 0.261000
H  1.644110 -1.976300 1.046000
C  1.857030 -1.498710 -0.995320
H  2.270390 -2.473150 -1.265850
C  -1.508610 -0.854340 0.790530
H  -1.152580 -1.821890 0.397280
H  -2.281500 -1.087100 1.542950
C  0.933720 0.075560 0.735940
O  0.787510 0.951620 -0.364070
H  1.661610 0.530190 1.440740
C  -0.373570 -0.129810 1.512520
H  -0.729900 0.852770 1.869300
H  -0.111280 -0.692310 2.424670
C  0.784000 2.315820 -0.052210
H  -0.055530 2.597550 0.608760
H  1.729700 2.616470 0.435070
H  0.681930 2.868640 -0.995780
