20

S  0.400860 2.567700 -0.136420
H  0.767600 2.495760 1.161050
C  -0.956330 1.369360 -0.056330
H  -1.600030 1.593360 0.808370
H  -1.549030 1.545250 -0.965320
C  2.208170 -1.525130 -0.061500
H  2.024950 -2.582780 0.171160
C  2.763010 -1.207440 -1.232670
H  3.050700 -1.974010 -1.956910
C  -0.526920 -0.097120 -0.030380
H  0.027420 -0.327740 -0.952480
N  -1.816690 -0.886560 -0.190520
C  1.773710 -0.538060 0.975920
H  2.116280 0.467960 0.691440
H  2.252550 -0.784020 1.939100
C  0.255340 -0.543370 1.194380
H  -0.008570 0.085550 2.060520
H  -0.073570 -1.558850 1.459330
O  -2.351400 -0.798880 -1.271470
O  -2.243670 -1.504010 0.755130
