18

S  1.599260 -1.631360 -0.005300
H  1.316010 -1.646050 1.314220
C  1.778920 0.166650 -0.182900
H  2.390900 0.567410 0.639620
H  2.357610 0.306630 -1.108150
C  -2.445620 -0.063020 -0.048180
C  -2.606510 -1.025770 -0.957430
H  -3.363420 -0.950650 -1.742640
C  0.491950 0.966180 -0.308520
H  -0.096830 0.589770 -1.163040
F  0.893130 2.259140 -0.616310
C  -1.432680 -0.083420 1.054010
H  -0.945110 -1.068530 1.079790
H  -1.949180 0.043980 2.021170
C  -0.388270 1.031030 0.930690
H  0.242760 1.065670 1.835340
H  -0.904340 2.004000 0.879120
H  -1.979720 -1.923670 -0.948360
