19

N  -1.662310 -1.578210 -0.773560
H  -1.799470 -1.043840 -1.628390
H  -1.986290 -2.519070 -0.984400
C  -2.441110 -1.012630 0.321640
H  -3.452950 -0.676080 0.008890
H  -2.609270 -1.818260 1.054650
C  0.898570 1.102080 -0.305400
H  1.485980 1.917860 0.130980
C  1.411930 -0.128200 -0.323690
Cl  2.984910 -0.507020 0.287330
C  -1.747900 0.129730 1.056800
H  -0.773550 -0.229240 1.427570
H  -2.355100 0.353800 1.950270
C  -0.477840 1.412730 -0.813220
H  -0.746550 0.690680 -1.597020
H  -0.463130 2.400700 -1.302530
C  -1.552510 1.432200 0.284860
H  -2.512670 1.741000 -0.166730
H  -1.292870 2.226800 1.005500
