24
aa101_plan_opt_C16_H21_TZ.log	Energy: -348655.3826938
C         -1.21997        0.38378       -0.02404
C         -1.26408       -0.88189       -0.60468
C         -2.46340       -1.56441       -0.69367
C         -3.62733       -0.99616       -0.20304
C         -3.59187        0.26522        0.37054
C         -2.39759        0.95356        0.45627
H         -0.36203       -1.32504       -1.00206
H         -2.49051       -2.54345       -1.14966
H         -4.56146       -1.53438       -0.27172
H         -4.49983        0.71099        0.74967
H         -2.34828        1.93827        0.89367
C          0.03972        1.14090        0.05875
C          1.30684        0.37057        0.05860
C          2.36270        0.76589       -0.75745
C          3.55875        0.07219       -0.73837
C          3.72002       -1.00828        0.11288
C          2.67931       -1.39728        0.94075
C          1.47505       -0.71865        0.90972
H          2.23224        1.60752       -1.42423
H          4.36711        0.37652       -1.38705
H          2.80585       -2.23586        1.60984
H          0.66248       -1.01945        1.55574
N         -0.02231        2.40583        0.13118
H          0.88164        2.87135        0.19000
