33
aa104_opt_C3_H8_TZ.log	Energy: -422607.0641027
C          1.43121        0.36528       -0.22411
C          1.58922       -0.00769        1.11721
C          2.85214       -0.39750        1.54773
C          3.94032       -0.41812        0.69480
C          3.78559       -0.02369       -0.62331
C          2.54033        0.36590       -1.07084
C          0.46831        0.02094        2.11320
H          4.90632       -0.73286        1.06157
H          4.63002       -0.02176       -1.29612
H          2.39273        0.67918       -2.09257
C          0.14489        0.77004       -0.82505
C         -1.11716        0.13139       -0.36552
C         -2.15115        0.90690        0.16496
C         -3.33985        0.28778        0.53004
C         -3.51182       -1.07159        0.35642
C         -2.49170       -1.83022       -0.18990
C         -1.28908       -1.24490       -0.55561
C         -2.00955        2.38923        0.36290
H         -4.13607        0.88443        0.95130
H         -4.44150       -1.54095        0.64217
H         -2.62978       -2.89204       -0.33537
C         -0.19861       -2.07999       -1.15870
N          0.18611        1.61342       -1.77238
H         -0.72147        1.83589       -2.17745
H         -2.49687        2.69458        1.28733
H         -0.96684        2.69686        0.39351
H         -2.49318        2.92315       -0.45629
H          0.21239       -1.60075       -2.04568
H          0.61830       -2.21686       -0.44993
H         -0.58014       -3.06029       -1.43495
H          0.86352       -0.07194        3.12270
H         -0.09358        0.94906        2.04708
H         -0.22523       -0.80214        1.94399
