29
aa100_opt_C12_H16_TZ.log	Energy: -327044.2935936
C          1.05100       -0.00170       -0.00040
C          1.32476       -1.37038       -0.00024
C          2.62204       -1.83812        0.00006
C          3.67283       -0.93480        0.00023
C          3.41260        0.42395        0.00026
C          2.11352        0.91441       -0.00001
H          0.48468       -2.04679       -0.00058
H          2.81838       -2.90018        0.00006
H          4.69432       -1.28646        0.00045
H          4.23841        1.12199        0.00060
C          1.88843        2.39832        0.00023
C         -0.34075        0.43907       -0.00163
H          1.33014        2.70674       -0.88317
H          1.32751        2.70605        0.88218
H          2.84011        2.92464        0.00182
N         -1.27944       -0.40248        0.00105
C         -2.67850       -0.06800        0.00014
C         -3.26959       -0.73685       -1.24947
C         -3.26894       -0.72525        1.25618
C         -3.02269        1.42767       -0.00672
H         -4.35168       -0.63376       -1.25717
H         -2.86480       -0.27670       -2.14827
H         -3.01149       -1.79207       -1.25760
H         -4.35104       -0.62219        1.26340
H         -3.01074       -1.78033        1.27403
H         -2.86382       -0.25672        2.15048
H         -4.10297        1.54739       -0.00760
H         -2.62487        1.92196        0.87780
H         -2.62426        1.91388       -0.89544
