31
aa110_plan_opt_C3_H8_TZ.log	Energy: -361746.2677639
C         -1.23250       -0.38571        0.17142
C         -1.98293       -1.49286       -0.20596
C         -3.30679       -1.35564       -0.57820
C         -3.89343       -0.10168       -0.56686
C         -3.15721        0.99857       -0.16771
C         -1.82455        0.87760        0.20794
H         -1.51144       -2.46362       -0.19838
H         -4.92724        0.01779       -0.85714
H         -3.62400        1.97343       -0.13945
C         -1.07083        2.09441        0.66147
C          0.19697       -0.60114        0.53443
N          1.05859        0.10547       -0.26132
N          0.43178       -1.39517        1.49139
H          0.62556        0.60776       -1.01938
C          2.51583        0.07693       -0.29383
C          2.95050        1.03839       -1.40404
C          3.09366        0.57141        1.03906
C          3.02613       -1.33290       -0.62506
H          4.03479        1.06760       -1.47240
H          2.55603        0.71649       -2.36602
H          2.59277        2.04507       -1.19708
H          4.17896        0.61177        0.98097
H          2.71926        1.56941        1.25918
H          2.81888       -0.08112        1.86269
H          4.11176       -1.33500       -0.68062
H          2.71754       -2.05167        0.12833
H          2.62664       -1.65656       -1.58393
H         -0.25586        1.82079        1.32641
H         -0.65570        2.63325       -0.19189
H         -1.73866        2.77435        1.18690
H          1.40906       -1.54607        1.71543
