23
aa125_opt_C2_H6_TZ.log	Energy: -348053.5934486
C          0.38725       -0.24227        0.19770
C          0.93483       -1.48697        0.47053
C          2.30085       -1.68239        0.35518
C          3.13024       -0.64421       -0.03567
C          2.59091        0.59888       -0.30611
H          3.22848        1.41706       -0.60951
O         -1.54411       -1.97224       -0.68527
C         -1.89720       -0.91599       -0.20482
C         -3.36703       -0.55510       -0.10762
N         -1.00472       -0.00121        0.28143
C         -1.35164        1.32783        0.75320
C         -0.60411        2.37410       -0.02615
C          0.62413        2.11211       -0.46200
C          1.22285        0.81799       -0.18899
H         -3.59897        0.30778       -0.72892
H         -3.93415       -1.40655       -0.47453
H         -3.65794       -0.35342        0.92094
H         -1.07984        1.40429        1.81953
H         -2.42268        1.49251        0.67073
H         -1.09234        3.32163       -0.19045
H          1.20561        2.83773       -1.01027
H          2.71741       -2.65415        0.57367
H          4.19386       -0.80438       -0.13048
