28
aa138_opt_C11_H26_TZ.log	Energy: -396762.4831567
O         -0.57293       -1.32960        0.00023
C         -0.58418       -0.12565       -0.00005
O         -1.67761        0.66136       -0.00029
C         -3.00454        0.08165        0.00000
C         -3.21719       -0.75711       -1.25993
C         -3.93579        1.29503       -0.00047
C         -3.21703       -0.75602        1.26067
N          0.50819        0.69344       -0.00015
C          1.86403        0.36074       -0.00008
C          2.78890        1.40330        0.00005
C          4.14378        1.13367        0.00012
C          4.59366       -0.17618        0.00005
C          3.67559       -1.21264       -0.00008
C          2.31663       -0.95512       -0.00013
H         -2.55477       -1.61822       -1.25466
H         -3.01079       -0.15986       -2.14580
H         -4.24642       -1.10267       -1.29930
H         -3.75522        1.90398        0.88158
H         -3.75545        1.90312       -0.88317
H         -4.97121        0.96820       -0.00018
H         -3.01066       -0.15798        2.14601
H         -4.24621       -1.10169        1.30042
H         -2.55451       -1.61706        1.25612
H          0.29496        1.68175       -0.00030
H          2.43924        2.42669        0.00011
H          5.65270       -0.38578        0.00010
H          4.01867       -2.23660       -0.00013
H          1.60354       -1.76199       -0.00022
