26
aa163_opt_C11_H27_TZ.log	Energy: -302373.3379706
C          2.87915        0.24281        0.10588
C          5.26867        0.61099        0.82346
C          1.93095       -0.54932       -0.79894
H          5.20579        1.67348        0.59905
C         -4.28978        0.61408        0.26546
C          4.33258       -0.18113       -0.08105
H          5.00224        0.46636        1.86823
H          4.43013       -1.24700        0.13928
H          4.62141       -0.03126       -1.12388
C         -3.30216        1.47932       -0.18192
C         -2.00870        1.02773       -0.34991
H          6.29852        0.29025        0.68391
N          0.60428       -0.04309       -0.65988
C         -0.32480       -0.78682       -0.24379
C         -1.68495       -0.30084       -0.07135
C         -2.68398       -1.16287        0.37789
C         -3.97814       -0.70651        0.54465
H          2.76728        1.30417       -0.12103
H          2.58157        0.09146        1.14623
H          2.00020       -1.62727       -0.56678
H          2.22826       -0.39718       -1.84223
H         -0.16098       -1.84884        0.00693
H         -2.44186       -2.19401        0.59561
H         -4.74672       -1.38119        0.89310
H         -5.30152        0.96910        0.39691
H         -3.54731        2.50898       -0.39843
