28
aa173_opt_C7_H29_TZ.log	Energy: -430630.7735233
C          4.14039       -0.90198        1.25306
C          4.14039       -0.90251       -1.25290
C          4.20252        1.27277       -0.00032
C         -1.88296       -1.11343       -0.00003
C         -2.75614       -0.02886       -0.00002
C          3.65458       -0.15884       -0.00007
C         -0.52493       -0.88387       -0.00012
H          3.80648       -0.38588       -2.14997
H          5.22575       -0.95455       -1.25985
N         -4.17683       -0.26157       -0.00000
O         -4.56033       -1.41253        0.00004
O         -4.90705        0.70771        0.00002
N          2.22417       -0.28992        0.00028
C          1.41065        0.67087        0.00050
C         -0.02762        0.42240       -0.00015
C         -0.91870        1.49738       -0.00014
C         -2.28017        1.27761       -0.00006
H          3.73518       -1.91033       -1.26409
H          3.80651       -0.38501        2.14995
H          5.22573       -0.95395        1.25994
H          3.73524       -1.90980        1.26467
H          3.87657        1.81345       -0.88701
H          3.87673        1.81379        0.88625
H          5.28867        1.24172       -0.00040
H          1.69434        1.73045       -0.00050
H         -0.53807        2.50831       -0.00008
H         -2.98480        2.09527       -0.00000
H         -2.28870       -2.11369        0.00010
