24
aa183_plan_opt_C5_H15_TZ.log	Energy: -418534.5460242
C         -1.16260        1.53020       -0.00684
C         -1.12892        0.13654       -0.01154
N         -2.28026       -0.65299       -0.01655
C         -3.59224       -0.26708        0.00179
C          0.02035        2.24884        0.00055
C          1.24570        1.60796        0.00325
C          1.28469        0.21616       -0.00259
C          0.10116       -0.51203       -0.01045
C          2.55834       -0.54103        0.00233
O          2.63344       -1.74664        0.00968
O          3.63624        0.25749       -0.00255
C          4.89225       -0.40188        0.00409
C         -4.53392       -1.45402        0.00553
H         -2.11300        2.03713       -0.00771
H          2.16610        2.16881        0.01000
H          5.64714        0.38010       -0.00336
H          4.99101       -1.03990       -0.87679
H          4.99058       -1.02243        0.89742
H          0.16307       -1.59114       -0.01453
H         -4.34698       -2.09081       -0.85603
H         -5.55824       -1.09616       -0.02845
H         -4.39159       -2.03863        0.91205
H         -2.09879       -1.64770       -0.02297
O         -3.96923        0.88036        0.01656
