49
aa191_plan_opt_C14_H38_TZ.log	Energy: -800776.0200399
C          3.10897        0.03853       -0.88129
C          3.73211       -0.04693        0.36075
N          5.12015       -0.04768        0.51636
C          6.09598        0.03127       -0.43898
C          7.48571        0.00179        0.16395
O          5.88785        0.11218       -1.62590
C          2.94808       -0.13441        1.51049
C          1.57057       -0.13447        1.42221
C          0.94592       -0.04492        0.18346
C          1.72949        0.04025       -0.96121
C         -0.52810       -0.03660        0.08923
C         -1.22676       -1.24163        0.03457
C         -0.76921       -2.59043        0.03461
C         -1.90103       -3.37914       -0.03469
C         -3.01872       -2.53480       -0.07810
N         -2.60758       -1.26380       -0.03892
B         -3.50911       -0.01635       -0.08450
N         -2.59085        1.21873       -0.03706
C         -1.21157        1.17792        0.05594
C         -0.73845        2.52075        0.10070
C         -1.85932        3.32456        0.02733
C         -2.98586        2.49528       -0.05706
C         -4.40892        2.88556       -0.15543
C         -4.44828       -2.90570       -0.15551
C          0.63310       -3.08120        0.08850
C          0.66676        2.99417        0.20773
H          7.65159       -0.94592        0.67292
H          7.60657        0.81225        0.88006
H          8.21965        0.11213       -0.62887
H          5.43162       -0.11449        1.47582
H          3.70803        0.10457       -1.77364
H          3.42375       -0.20197        2.47944
H          1.24987        0.10694       -1.92643
H          0.97058       -0.20020        2.31790
H          1.11540       -2.78172        1.01804
H          1.22057       -2.67320       -0.73260
H          0.64250       -4.16665        0.02320
H         -4.56619       -3.98546       -0.14946
H         -4.98762       -2.46953        0.68409
H         -4.88657       -2.49195       -1.06284
F         -4.36823       -0.00983        1.00481
F         -4.25586       -0.01202       -1.25222
H         -4.96601        2.45889        0.67753
H         -4.84000        2.47571       -1.06787
H         -4.51199        3.96687       -0.15282
H         -1.87907        4.39716        0.03364
H          0.68120        4.07875        0.28546
H          1.24510        2.69841       -0.66660
H          1.15579        2.57048        1.08348
