26
aa197_plan_opt_C8_H22_TZ.log	Energy: -359640.3546719
C         -1.02154       -1.47153       -0.01460
C         -0.68406       -0.12298       -0.00520
N          0.63264        0.34202       -0.00488
C          1.79710       -0.38968        0.00153
N          2.93911        0.36968       -0.00290
C          4.21324       -0.31062        0.02634
C          2.96694        1.81319       -0.02675
C         -2.35547       -1.83768       -0.01475
C         -3.35621       -0.88436       -0.00642
C         -3.03307        0.46824        0.00184
C         -1.69840        0.83462        0.00241
C         -4.11768        1.50368        0.01942
H          0.70941        1.34653        0.00532
O          1.83951       -1.60399        0.01060
H          4.01736       -1.38034        0.04934
H          4.77962       -0.02859        0.91690
H          4.79842       -0.07122       -0.86452
H          4.00568        2.13399       -0.06748
H          2.51878        2.24471        0.87505
H          2.46014        2.21383       -0.91072
H         -0.24354       -2.21495       -0.02112
H         -4.39407       -1.18396       -0.00658
H         -1.43498        1.88517        0.00864
H         -3.70765        2.50416       -0.09478
H         -4.66371        1.45995        0.96156
H         -4.82899        1.32339       -0.78493
