26
aa216_plan_opt_C1_H21_TZ.log	Energy: -419267.9332464
C          0.13296       -1.17209       -0.00011
C         -0.48233        0.06925       -0.00004
N         -1.87694        0.24391        0.00003
C         -2.84258       -0.71644       -0.00000
O         -2.65140       -1.90275       -0.00010
O         -4.12508       -0.27147        0.00007
C         -4.46755        1.09750        0.00010
C          1.51581       -1.25778       -0.00012
C          2.30110       -0.11412       -0.00008
C          1.68574        1.14796       -0.00005
C          0.30737        1.21836       -0.00002
O          3.66754       -0.10358       -0.00007
C          4.34609       -1.33425        0.00026
C          2.53812        2.37820       -0.00004
H          4.11370       -1.92320        0.89357
H          4.11404       -1.92350       -0.89296
H          5.40650       -1.08541        0.00042
H          3.18393        2.38360       -0.87647
H          3.18387        2.38362        0.87644
H          1.92753        3.27710       -0.00007
H          1.96662       -2.23712       -0.00018
H         -0.16564        2.19183        0.00001
H         -4.10609        1.60905        0.89854
H         -4.10604        1.60910       -0.89829
H         -5.55654        1.11828        0.00007
H         -2.16026        1.21221        0.00016
