19
aa211_plan_opt_C11_H16_TZ.log	Energy: -322801.0251516
C          1.25268        1.01675        0.00011
C          0.61984       -0.22141       -0.00008
N         -0.77475       -0.37159       -0.00015
C         -1.72916        0.60405       -0.00013
O         -1.51968        1.78644       -0.00015
O         -3.01521        0.17698       -0.00007
C         -3.37985       -1.18670        0.00030
C          2.63483        1.07805        0.00019
C          3.39704       -0.07776        0.00010
C          2.76687       -1.31070       -0.00009
C          1.38710       -1.38445       -0.00017
H          0.66129        1.91635        0.00017
H          3.11900        2.04300        0.00034
H          4.47500       -0.02033        0.00017
H          3.34973       -2.21990       -0.00016
H         -1.07545       -1.33525       -0.00035
H         -3.02697       -1.70379        0.89885
H         -4.46897       -1.18909        0.00056
H         -3.02739       -1.70419       -0.89818
