27
aa222_plan_opt_C21_H26_TZ.log	Energy: -373303.1358373
C         -1.95223       -1.37293       -0.26130
C         -1.60248       -0.05165        0.02993
C         -0.19590        0.29422        0.13365
N          0.71233       -0.57721       -0.02759
C         -3.27323       -1.74950       -0.37834
C         -4.27059       -0.80247       -0.20618
C         -3.93522        0.50861        0.08303
C         -2.61194        0.90865        0.20748
C         -2.30065        2.34200        0.52137
H         -1.74172        2.42282        1.45305
H         -1.70586        2.79320       -0.27218
H         -3.21950        2.91424        0.62454
H         -4.72041        1.23984        0.21534
H         -5.30960       -1.08344       -0.29688
H         -3.52955       -2.77403       -0.60330
H         -1.15375       -2.08668       -0.39085
H          0.04583        1.33497        0.37813
C          2.05457       -0.26709       -0.01614
C          2.57178        0.82905       -0.71161
C          3.93347        1.05895       -0.73440
C          4.79676        0.21377       -0.05758
C          4.29085       -0.87897        0.63014
C          2.93413       -1.12960        0.64211
H          1.89717        1.47514       -1.25620
H          4.32337        1.90565       -1.28134
H          4.96260       -1.54324        1.15438
H          2.52929       -1.97618        1.17552
