27
aa234_opt_C14_H18_TZ.log	Energy: -443627.8664956
C         -2.62291       -1.31935        0.00008
C         -2.44251        0.06370       -0.00001
H          4.00478       -2.83657       -0.00022
H          5.95803       -1.32795        0.00004
H          5.62282        1.11511        0.00027
H          3.34952        2.05213        0.00023
C          2.58288       -1.24530       -0.00014
H          1.72590       -1.90186       -0.00026
H          1.05536        2.89236       -0.00008
H         -3.39399        1.97269       -0.00013
N         -0.81255        1.90379       -0.00005
C         -4.82561        0.36756       -0.00003
C         -5.00116       -1.00817        0.00007
C         -3.89893       -1.84816        0.00012
O         -0.02714       -0.16428       -0.00002
C          2.38339        0.13637       -0.00001
H         -1.75994       -1.96804        0.00012
H         -5.99703       -1.42606        0.00009
C         -1.11398        0.63263       -0.00003
C         -3.55449        0.90643       -0.00006
C          0.54011        1.95446       -0.00005
C          1.04166        0.67451       -0.00003
C          4.95849       -0.91944        0.00002
C          4.76889        0.45377        0.00015
C          3.49332        0.98290        0.00013
H         -5.68630        1.01984       -0.00007
C          3.86185       -1.76590       -0.00012
