22
aa270_opt_C10_H19_TZ.log	Energy: -428376.2734926
C          2.35232        0.01808       -0.00669
O          4.33792       -1.06369        0.23087
C         -3.78007       -1.16864       -0.33048
C          1.69015        1.21535       -0.25307
N          3.79145       -0.00407        0.00656
C          1.64473       -1.15776        0.22027
C          0.26711       -1.12574        0.21205
C         -2.63563        1.19346        0.33080
C         -0.41643        0.07149       -0.01426
C          0.31113        1.23815       -0.25587
C         -4.01696        1.10611        0.31495
C         -4.61041       -0.09689       -0.03211
O          4.37397        1.03891       -0.20718
C         -1.88660        0.06395       -0.00381
N         -2.46535       -1.09535       -0.31402
H          2.18783       -2.07318        0.39900
H         -0.30856       -2.02199        0.37874
H          2.26821        2.10744       -0.44046
H         -2.14993        2.11172        0.62098
H         -4.62082        1.96424        0.57270
H         -5.68315       -0.20389       -0.06279
H         -4.18754       -2.13550       -0.59617
