32
aa280_plan2_opt_C9_H32_TZ.log	Energy: -492306.2638978
C          3.18845       -0.90524       -0.54282
C          2.44169        0.00703        0.19520
N          1.06880       -0.22309        0.44821
C          0.23697       -0.65336       -0.54536
O          0.60939       -0.92326       -1.66812
C          3.05908        1.15044        0.69431
C          4.40232        1.37550        0.45528
C          5.14200        0.47011       -0.28550
C          4.52913       -0.66702       -0.78346
C          0.55295        0.15013        1.74923
C         -1.21179       -0.74589       -0.16234
C         -2.01579        0.37584       -0.32627
C         -3.37490        0.30077       -0.04572
C         -3.91341       -0.90572        0.40675
C         -3.10880       -2.01499        0.55796
C         -1.75424       -1.94597        0.27032
O         -4.25177        1.33282       -0.17173
C         -3.78000        2.56065       -0.67185
H         -4.65051        3.21284       -0.72035
H         -3.03294        3.00629       -0.00655
H         -3.35456        2.44980       -1.67415
H         -4.96919       -0.94492        0.62267
H         -3.53890       -2.94461        0.89920
H         -1.56577        1.28864       -0.68517
H         -1.12381       -2.81563        0.37785
H         -0.23808       -0.53790        2.04507
H          1.36009        0.09120        2.47813
H          0.14344        1.16470        1.75231
H          2.49021        1.87362        1.25897
H          4.86979        2.26781        0.84548
H          6.18944        0.65139       -0.47422
H          2.71635       -1.79167       -0.93230
