35
aa281_plan2_opt_C14_H31_TZ.log	Energy: -516957.0342724
C         -1.88683       -2.06047        0.21681
C         -1.39432       -0.83732       -0.20961
C          0.04946       -0.69676       -0.59647
O          0.44771       -0.93032       -1.71949
N          0.85942       -0.26279        0.40363
C          0.37397       -0.01020        1.74400
C          2.25777       -0.13002        0.16383
C          3.00631       -1.26696       -0.10436
C          4.36757       -1.16819       -0.32468
C          4.98217        0.07049       -0.27072
C          4.23061        1.20441       -0.02024
C          2.86023        1.12866        0.19027
C          2.05271        2.37047        0.41987
C         -3.23155       -2.18118        0.53161
C         -4.07573       -1.09728        0.41762
C         -3.58767        0.13373       -0.02530
O         -4.50213        1.13801       -0.11221
C         -4.08567        2.38794       -0.60552
C         -2.23878        0.25908       -0.33548
H         -0.15348       -0.88351        2.13364
H          1.22620        0.19714        2.38796
H         -0.30978        0.84170        1.77128
H          1.09041        2.29403       -0.08240
H          1.87098        2.52695        1.48357
H          2.58012        3.24032        0.03618
H          4.71152        2.17207        0.00040
H          6.04578        0.15630       -0.43607
H          4.94538       -2.05515       -0.53584
H          2.50954       -2.22406       -0.14702
H         -1.22603       -2.91075        0.29428
H         -5.12449       -1.17510        0.65641
H         -4.97946        3.00960       -0.62495
H         -3.68018        2.30560       -1.61883
H         -3.33952        2.85146        0.04875
H         -1.82915        1.19305       -0.68904
