42
aa285_plan_opt_C18_H32_TZ.log	Energy: -613888.0325654
C         -2.46497       -2.27365       -1.20263
C         -1.95791       -1.23527       -0.42146
C         -0.86554       -0.39483       -0.97082
O         -0.46422       -0.50182       -2.11057
C         -0.26537        0.59081        0.00937
N          0.67388        0.30924        0.80993
C          1.29995       -0.98853        0.81495
C          2.69715       -0.76894        0.26588
C          2.87400       -0.78287       -1.11304
C          4.11995       -0.55113       -1.66611
C          5.20668       -0.29769       -0.84664
C          5.03552       -0.27189        0.52598
C          3.78761       -0.50035        1.08056
C          1.26606       -1.52816        2.24362
C         -0.83882        1.94015        0.00231
C         -1.98713        2.22786       -0.73382
C         -2.51014        3.50794       -0.73221
C         -1.89627        4.51103       -0.00067
C         -0.75419        4.23135        0.73491
C         -0.22739        2.95567        0.73805
C         -3.47142       -3.08344       -0.71507
C         -3.98268       -2.86138        0.55448
C         -3.48641       -1.82851        1.33497
C         -2.47663       -1.01630        0.85423
H         -2.05061       -2.42718       -2.18838
H         -3.85945       -3.88852       -1.32124
H         -4.77007       -3.49413        0.93678
H         -3.88926       -1.65630        2.32207
H         -2.09259       -0.21019        1.46241
H         -2.47290        1.45183       -1.30845
H         -3.39936        3.72403       -1.30605
H         -0.27454        5.01420        1.30391
H          0.66186        2.71444        1.29851
H          0.24818       -1.81774        2.49871
H          1.58581       -0.75908        2.94079
H          1.91286       -2.39726        2.33364
H          0.78381       -1.70647        0.15210
H          2.02770       -0.96880       -1.75887
H          3.67306       -0.46861        2.15234
H          5.87808       -0.06962        1.17167
H          6.18086       -0.11616       -1.27668
H          4.24093       -0.56561       -2.73929
