37
aa293_opt_C8_H24_TZ.log	Energy: -481389.7942255
C          2.83298       -1.48219       -0.21731
C          2.48503       -0.15361       -0.04578
N          1.21591        0.42626       -0.02716
C          0.03528       -0.24177       -0.26116
O         -0.01061       -1.41604       -0.56826
C          4.17931       -1.81429       -0.17342
C          5.15350       -0.85335        0.03513
C          4.79773        0.47902        0.20298
C          3.46467        0.81890        0.16154
C          2.82583        2.16952        0.30353
C          1.31962        1.85653        0.24459
N         -1.08716        0.53590       -0.16780
C         -2.40446       -0.06780       -0.23411
C         -2.92189       -0.44091        1.15853
C         -4.30182       -1.08201        1.05673
C         -5.27969       -0.13895        0.36264
C         -4.76277        0.23900       -1.02223
C         -3.38234        0.88167       -0.92359
H         -2.28621       -0.97959       -0.82790
H         -1.03990        1.42147        0.30817
H          2.07513       -2.22832       -0.38244
H          4.46810       -2.84660       -0.30405
H          6.19454       -1.13735        0.06697
H          3.10287        2.64887        1.24351
H          3.13031        2.83015       -0.51072
H          0.82255        2.42488       -0.54785
H          0.83820        2.09304        1.20189
H         -3.00981        1.13113       -1.91872
H         -3.45209        1.80790       -0.34624
H         -2.21868       -1.13129        1.62811
H         -2.98026        0.46051        1.77604
H         -4.66780       -1.33177        2.05479
H         -4.22428       -2.00925        0.48571
H         -5.40175        0.76518        0.96433
H         -6.25772       -0.61628        0.27567
H         -5.45766        0.92997       -1.50394
H         -4.69780       -0.65812       -1.64103
