34
aa310_plan_opt_C13_H30_TZ.log	Energy: -469802.9470654
C         -2.69931        0.35927       -0.76148
C         -1.56618        0.59576        0.01481
C         -0.67142        1.69497       -0.45637
C         -3.60262       -0.62585       -0.41637
C         -3.38599       -1.37640        0.72776
C         -2.29167       -1.10862        1.52773
O         -1.09226        2.81840       -0.66071
C         -1.37385       -0.11617        1.19858
C         -0.25103        0.17948        2.14581
N          0.64025        1.41684       -0.69648
C          1.39274        0.24102       -0.50711
C          1.03969       -0.96837       -1.10912
C          1.81526       -2.09209       -0.84507
C          2.93561       -2.01898       -0.04229
C          3.31823       -0.80007        0.48999
C          2.56090        0.33739        0.26523
C          2.99012        1.65888        0.83061
C         -0.10172       -1.08861       -2.07165
H          0.59485       -0.48247        1.95992
H          0.08453        1.20795        2.04347
H         -0.57955        0.02352        3.17153
H         -2.14537       -1.67135        2.43887
H         -4.08141       -2.15414        1.00743
H         -4.47208       -0.80380       -1.03112
H         -2.85628        0.96027       -1.64503
H         -0.96994       -1.53797       -1.59154
H         -0.39005       -0.11736       -2.46430
H          0.18977       -1.72949       -2.90215
H          1.17858        2.24478       -0.92692
H          3.52405       -2.90301        0.15138
H          4.21306       -0.73056        1.09104
H          3.33173        2.32109        0.03323
H          3.81106        1.52375        1.52974
H          2.17085        2.15407        1.34918
