39
aa324_opt_C18_H40_TZ.log	Energy: -495227.8517593
O         -1.07410       -1.69107        0.57499
C         -1.37067       -0.56478        0.22124
N         -0.46750        0.38980       -0.09624
C          0.98314        0.22167       -0.06545
C          1.43892       -0.18026        1.34090
C          2.95979       -0.31827        1.36224
C          1.41876       -0.85367       -1.06726
C          3.14889        1.41665       -0.41690
C          3.58022        0.34607       -1.41800
C          2.93981       -0.98862       -1.03870
C          3.60135        1.01662        0.98645
C          1.62667        1.55666       -0.44283
C          3.38844       -1.39284        0.36450
C         -2.79793       -0.13295        0.09064
C         -3.73883       -1.10051       -0.24759
C         -5.07343       -0.76546       -0.37804
C         -4.55721        1.50251        0.20502
C         -3.21939        1.17157        0.32828
C         -5.48380        0.53887       -0.15719
H         -0.80946        1.26121       -0.46793
H          0.96755       -1.12498        1.61114
H          1.11646        0.57863        2.05834
H          3.27974       -0.60624        2.36951
H          0.94760       -1.79931       -0.79811
H          1.08091       -0.57684       -2.06949
H          3.60255        2.37673       -0.68874
H          4.66829        0.25216       -1.41275
H          3.27436        0.63383       -2.42671
H          3.24639       -1.75714       -1.75671
H          4.68958        0.92826        1.01296
H          3.31068        1.78603        1.70563
H          1.31336        2.32949        0.26432
H          1.29949        1.85516       -1.44285
H          4.47401       -1.51250        0.38881
H          2.93670       -2.34883        0.63519
H         -3.40047       -2.11386       -0.40290
H         -5.79595       -1.52148       -0.64787
H         -6.52613        0.80377       -0.25744
H         -4.87877        2.51618        0.39561
