21
aa4_opt_C7_H12_TZ.log	Energy: -300268.7437761
N          0.94538        0.41058        0.19081
C          1.83044       -0.54946       -0.21530
C          1.37342        1.73038        0.60152
C         -0.44873        0.17512        0.09708
C         -0.99757       -1.01232        0.56795
C         -2.35987       -1.22945        0.47293
C         -3.18813       -0.26690       -0.07847
C         -2.64420        0.91800       -0.54289
C         -1.28178        1.13994       -0.46087
H         -0.35581       -1.76384        0.99714
H         -2.77681       -2.15600        0.83844
H         -3.28134        1.67294       -0.97999
H         -0.86608        2.05939       -0.84560
O          1.47555       -1.63680       -0.61847
C          3.29305       -0.16641       -0.14000
H          0.53262        2.24348        1.06392
H          2.17309        1.65844        1.33888
H          1.72978        2.32814       -0.24240
H          3.87389       -0.98395       -0.55824
H          3.49182        0.74075       -0.70522
H          3.59707       -0.01244        0.89344
