22
aa58_opt_C2_H7_TZ.log	Energy: -324173.2860976
C         -0.64758       -0.07541        0.00677
C         -1.30555        1.11555        0.31071
C         -2.68638        1.16243        0.32611
C         -3.43565        0.03137        0.04946
C         -2.78710       -1.15307       -0.25119
C         -1.40559       -1.21138       -0.27536
H         -3.18031        2.09315        0.56271
H         -4.51430        0.07237        0.06664
H         -3.35791       -2.04308       -0.47286
H         -0.92577       -2.14447       -0.52632
N          0.75224       -0.14486       -0.00103
C          1.44333       -1.42050        0.07357
C          2.87559       -1.04008        0.45077
C          3.02705        0.34410       -0.16588
C          1.61149        0.90349       -0.16635
O          1.31778        2.06658       -0.31007
H          3.70069        1.00303        0.37798
H          3.60215       -1.75868        0.07692
H          1.41866       -1.92604       -0.90046
H          3.36670        0.29135       -1.20266
H          2.97273       -0.98009        1.53551
H          0.97171       -2.06506        0.81856
