18
aa68_plan_opt_C10_H15_TZ.log	Energy: -286277.0984723
N         -0.99494        0.07930       -0.00010
N         -1.66741       -1.07578       -0.00010
C         -2.94301       -0.76309        0.00003
C         -3.11905        0.63094        0.00014
C         -1.84492        1.13761        0.00002
H         -1.50846        2.15345        0.00005
H         -4.04063        1.17583        0.00026
H         -3.68959       -1.53232        0.00008
C          0.40256        0.07823       -0.00010
C          1.13809        1.25972       -0.00012
C          2.52038        1.20860       -0.00001
C          3.18019       -0.00841        0.00011
C          2.44779       -1.18479        0.00006
C          1.06757       -1.14628       -0.00003
H          3.08445        2.12958       -0.00000
H          4.25929       -0.03908        0.00023
H          2.95511       -2.13789        0.00014
H          0.47880       -2.04937       -0.00003
