27
aa6_opt_C15_H26_TZ.log	Energy: -606653.9016688
O          1.26171       -1.49317       -1.97203
C          1.67933       -1.00503       -0.96115
C          3.08068       -0.51475       -0.67927
C          3.07826       -0.11292        0.78823
C          1.64347       -0.26546        1.23859
N          0.91750       -0.77571        0.18288
C         -0.46986       -1.08721        0.21436
C         -1.44238       -0.13151        0.51389
C         -1.11777        1.29726        0.87141
C         -0.64361        2.11040       -0.31875
F         -0.59304        3.42111       -0.02285
F          0.59167        1.78706       -0.74029
F         -1.44951        1.99283       -1.38161
C         -2.77637       -0.52149        0.47845
C         -3.14396       -1.81322        0.15167
C         -2.17063       -2.75132       -0.14332
C         -0.83864       -2.38759       -0.10954
O          1.18913       -0.00071        2.32206
H          3.79837       -1.29904       -0.91825
H          3.27956        0.32840       -1.34190
H          3.39463        0.91678        0.95410
H          3.70940       -0.75287        1.40624
H         -2.01751        1.79324        1.24073
H         -0.35171        1.34655        1.64873
H         -3.54022        0.20733        0.70563
H         -2.44463       -3.76310       -0.39860
H         -0.07040       -3.10822       -0.34175
