19
aa74_plan_opt_C4_H9_TZ.log	Energy: -299504.5232556
C         -0.56771        0.03658       -0.00051
C         -1.29906        1.22323        0.00204
C         -2.67957        1.18059        0.00272
C         -3.33923       -0.03935        0.00063
C         -2.61491       -1.22046       -0.00212
C         -1.23283       -1.18723       -0.00257
H         -0.76327        2.15901        0.00360
H         -3.24704        2.09957        0.00495
H         -3.12984       -2.17001       -0.00384
H         -0.65782       -2.10049       -0.00466
C          0.88721        0.08779       -0.00087
N          1.57615        1.15331       -0.00269
C          2.97044        0.78824       -0.00420
C          2.95298       -0.76246        0.00590
O          1.56975       -1.09109        0.00084
H          3.42121       -1.19974       -0.88003
H          3.45222        1.20009       -0.89448
H          3.45886        1.21205        0.87655
H          3.41081       -1.18658        0.90391
