19
aa79_opt_C16_H20_TZ.log	Energy: -310190.6224654
C         -0.65795       -0.01397       -0.00020
C         -1.33684        1.20385       -0.00017
C         -2.71799        1.22629       -0.00006
C         -3.43376        0.03906        0.00025
C         -2.76385       -1.17466        0.00034
C         -1.38285       -1.20497        0.00019
H         -0.76403        2.11781       -0.00020
H         -3.24141        2.17129       -0.00004
H         -4.51395        0.05969        0.00030
H         -3.32299       -2.09897        0.00068
H         -0.84537       -2.14015        0.00046
C          0.80511       -0.04193       -0.00044
N          1.44865        1.12624       -0.00038
C          2.76671        1.09595        0.00054
C          3.48311       -0.09304        0.00074
C          2.72186       -1.25383       -0.00027
N          1.40358       -1.23380       -0.00077
H          3.26072        2.06036       -0.00027
H          4.56012       -0.11360        0.00162
