22
aa80_opt_C4_H9_TZ.log	Energy: -334831.4829960
C         -0.66971       -0.21076       -0.01561
C         -1.24699       -1.48009       -0.11020
C         -2.61547       -1.64545       -0.12999
C         -3.43641       -0.53251       -0.04785
C         -2.87514        0.72653        0.05553
C         -1.49835        0.91902        0.07184
H         -0.58884       -2.33253       -0.17091
H         -3.04214       -2.63424       -0.20903
H         -3.52276        1.58939        0.12563
C         -0.96523        2.30986        0.19232
C          0.79493       -0.14421       -0.01167
N          1.44234       -1.29226        0.21334
C          2.75820       -1.26788        0.21604
C          3.48234       -0.10401       -0.00957
C          2.72332        1.03275       -0.24066
N          1.40389        1.01801       -0.24008
H          3.24656       -2.21643        0.40629
H          4.55945       -0.08681       -0.00641
H          3.18057        1.99690       -0.43283
H         -0.21940        2.37084        0.98129
H         -0.47456        2.60430       -0.73314
H         -1.77145        3.00895        0.40525
