26
aa86_opt_C15_H19_TZ.log	Energy: -349420.4333736
C          0.68203       -0.04553       -0.23282
C          1.29464       -1.09411       -0.90691
C          2.67261       -1.21224       -0.92328
C          3.44678       -0.27955       -0.25613
C          2.83991        0.76884        0.41355
C          1.45928        0.90613        0.43161
H          0.68355       -1.81201       -1.43547
H          3.13925       -2.02819       -1.45539
H          4.52359       -0.36570       -0.25970
H          3.44957        1.49658        0.93041
C          0.80626        2.04235        1.15708
C         -0.79682        0.05637       -0.23946
N         -1.31614        1.06154       -0.93206
C         -2.62885        1.18793       -0.99406
C         -3.50252        0.31855       -0.36258
C         -2.96252       -0.72171        0.37638
C         -1.58481       -0.87357        0.45256
H         -2.98840        2.02664       -1.57647
H         -3.60927       -1.41361        0.89869
C         -0.96896       -1.97609        1.25682
H          1.55120        2.72040        1.56610
H          0.15908        2.59176        0.47615
H          0.18697        1.66909        1.97321
H         -0.61827       -2.77525        0.60394
H         -0.11045       -1.60924        1.81712
H         -1.69593       -2.39546        1.94932
