28
aa88_opt_C3_H8_TZ.log	Energy: -373466.0362394
C          1.16032       -0.09724       -0.17337
C          2.00809       -0.77247       -1.04378
C          3.36813       -0.80802       -0.79672
C          3.89191       -0.16697        0.31316
C          3.04910        0.51343        1.17515
C          1.68705        0.54824        0.93777
H          1.60419       -1.25708       -1.92115
H          4.95471       -0.19392        0.50186
H          3.45288        1.01707        2.04084
H          1.02912        1.08341        1.60408
N         -0.23770       -0.07178       -0.42157
C         -0.87345        1.13047       -0.48353
C         -0.91708       -1.34682       -0.53641
O         -0.27479        2.18331       -0.39159
C         -2.37715        1.09198       -0.68496
C         -1.81334       -1.64356        0.67077
H         -1.50849       -1.38596       -1.45735
H         -0.14395       -2.11500       -0.59988
C         -3.11789        0.54309        0.53861
H         -2.67970        2.12635       -0.85698
H         -2.63266        0.51144       -1.57335
H         -1.95090       -2.72448        0.74298
H         -1.30189       -1.31137        1.57665
H         -4.13931        0.93018        0.52875
H         -2.63598        0.91449        1.44578
C         -3.18394       -0.98083        0.57409
H         -3.69081       -1.33885       -0.32604
H         -3.78546       -1.28797        1.43278
