22
aa95_plan_opt_C2_H7_TZ.log	Energy: -324153.9365124
C         -0.45294       -0.20759       -0.00482
C         -1.01735       -1.48444       -0.01795
C         -2.38651       -1.65449       -0.01859
C         -3.21183       -0.54212       -0.00411
C         -2.65886        0.72551        0.01002
C         -1.28358        0.92338        0.00907
H         -2.80895       -2.64805       -0.03005
H         -4.28535       -0.66205       -0.00353
H         -3.31057        1.58772        0.02200
C         -0.73139        2.30868        0.02421
C          0.99988       -0.10471       -0.00560
O          1.70141       -1.27565        0.03951
C          3.08023       -0.93443        0.03061
C          3.08163        0.61347       -0.03344
N          1.68389        0.96439       -0.04574
H          3.56385        1.07338        0.83269
H          3.54409       -1.32290        0.94182
H          3.55145       -1.39744       -0.84090
H          3.56043        0.99961       -0.93691
H         -0.08448        2.44662        0.88748
H         -0.11161        2.47498       -0.85377
H         -1.53300        3.04303        0.04885
