25
aa97_opt_C18_H23_TZ.log	Energy: -520333.2999173
C         -2.09455       -0.19172       -0.10178
C         -3.03434       -0.58620       -1.04978
C         -4.36962       -0.27333       -0.87851
C         -4.77883        0.41968        0.24922
C         -3.85128        0.79343        1.20825
C         -2.51193        0.49452        1.03529
H         -2.69621       -1.13532       -1.91561
H         -5.09330       -0.57295       -1.62171
H         -5.82214        0.66261        0.38603
H         -4.17317        1.31857        2.09546
H         -1.79987        0.76733        1.80109
C         -0.67141       -0.55998       -0.33112
O         -0.32217       -1.54078       -0.94213
N          0.22056        0.34933        0.20672
H         -0.11954        1.28597        0.37663
C          1.60605        0.22319        0.11549
C          2.39605        1.31608       -0.24554
C          3.76844        1.24829       -0.35548
C          4.39950        0.04082       -0.10574
C          3.65945       -1.06268        0.27875
C          2.28481       -0.96357        0.39919
F          1.76536        2.49107       -0.48166
H          5.47073       -0.03452       -0.19870
H          4.13188       -2.00524        0.50371
F          1.60363       -2.02404        0.85429
