31
aa98_opt_C23_H28_TZ.log	Energy: -764637.9827332
C          2.58479       -0.38183        0.11305
C          2.91096       -1.72437        0.28638
C          4.19975       -2.16497        0.05082
C          5.17711       -1.26576       -0.34428
C          4.86401        0.07538       -0.49669
C          3.57302        0.51950       -0.27302
H          2.13695       -2.40556        0.60605
H          4.44509       -3.20842        0.18001
H          6.18549       -1.60720       -0.52502
H          5.62965        0.77871       -0.78866
H          3.34675        1.57192       -0.36721
C          1.18368        0.03683        0.39431
O          0.46521       -0.54656        1.17646
N          0.72554        1.10815       -0.31179
H          1.29165        1.55718       -1.01222
S         -0.76448        1.87340        0.06061
O         -0.92476        2.79107       -1.02852
O         -0.68941        2.39555        1.38623
C         -1.94469        0.55425       -0.05617
C         -2.43940       -0.02523        1.09425
C         -3.34581       -1.06267        0.98090
C         -3.75500       -1.51795       -0.27055
C         -3.24135       -0.91137       -1.41227
C         -2.33258        0.12776       -1.30926
H         -2.09684        0.33810        2.04877
H         -3.74038       -1.53042        1.87062
C         -4.74991       -2.63182       -0.37520
H         -1.92981        0.61917       -2.18079
H         -4.77290       -3.04416       -1.38032
H         -4.51198       -3.42611        0.32879
H         -5.74639       -2.26172       -0.13431
