18

O  3.062840 -1.283100 -0.000020
C  2.593350 -0.024210 0.000110
H  4.028340 -1.205630 -0.000010
O  3.328640 0.932860 0.000280
C  1.116780 0.046390 0.000010
C  0.311080 -1.094240 -0.000180
C  0.510340 1.311670 0.000030
C  -1.076620 -0.986850 -0.000350
C  -0.866450 1.431300 -0.000090
H  1.152650 2.194700 0.000200
C  -1.673640 0.281230 -0.000270
H  -1.683210 -1.892400 -0.000570
H  -1.357350 2.406030 -0.000020
O  -2.999820 0.491550 -0.000560
C  -3.866020 -0.610390 0.000700
H  -3.730810 -1.238230 -0.897200
H  -3.728890 -1.237660 0.898710
H  -4.886260 -0.207020 0.001640
