18

N  3.901920 1.028620 -0.220490
C  3.221920 -0.121830 0.034730
H  3.456070 1.824550 -0.651760
H  4.909980 0.960100 -0.274440
O  3.780100 -1.172250 0.278720
C  1.721940 -0.020490 0.009560
C  1.026170 1.185950 0.134030
C  1.006170 -1.214720 -0.115500
C  -0.365140 1.201810 0.114360
C  -0.382260 -1.203760 -0.144260
H  1.571170 -2.145950 -0.188460
C  -1.068800 0.006830 -0.029510
H  -0.939630 -2.135370 -0.259000
C  -2.572980 0.012160 -0.005510
H  1.563970 2.126070 0.276880
F  -3.080740 -0.946130 -0.784810
F  -3.070680 1.179980 -0.421700
F  -3.040810 -0.197300 1.230000
