23

C  -0.158700 -0.133150 -0.097750
C  0.745820 0.949690 -0.141890
C  0.349680 -1.426810 0.059430
C  2.116730 0.692260 -0.032450
C  1.717090 -1.668230 0.170770
C  2.608370 -0.601160 0.123390
H  -0.340390 -2.272640 0.095700
H  3.684380 -0.771950 0.206110
C  -1.655790 0.105180 -0.163040
C  0.272690 2.366660 -0.311420
H  1.119660 3.066150 -0.288290
H  -0.250160 2.510600 -1.271120
H  -0.429280 2.667350 0.482180
H  2.814940 1.533230 -0.071720
H  -1.814950 1.039440 -0.725420
C  -2.422290 -0.989570 -0.899400
H  -3.476270 -0.698000 -1.026020
H  -1.997530 -1.179040 -1.896650
H  -2.417320 -1.940510 -0.344000
C  -2.220540 0.313780 1.244930
H  -1.703530 1.128530 1.773750
H  -3.294750 0.555710 1.210430
H  -2.095990 -0.600110 1.847450
