51
Properties=species:S:1:pos:R:3 aa191_opt_TZ.log=T Energy:=T -801213.9459778=T pbc="F F F"
C        3.11792000       0.04025000      -0.88139000
C        3.74161000      -0.04687000       0.36026000
N        5.12977000      -0.05597000       0.51470000
C        6.10530000       0.02836000      -0.44060000
C        7.49541000      -0.00903000       0.16045000
O        5.89611000       0.11786000      -1.62674000
C        2.95821000      -0.12790000       1.51086000
C        1.58058000      -0.11959000       1.42413000
C        0.95540000      -0.02839000       0.18582000
C        1.73839000       0.05005000      -0.95974000
C       -0.51870000      -0.01214000       0.09175000
C       -1.22328000      -1.21366000       0.03702000
C       -0.77256000      -2.56470000       0.03848000
C       -1.90811000      -3.34776000      -0.03360000
C       -3.02143000      -2.49784000      -0.07988000
N       -2.60416000      -1.22890000      -0.03953000
B       -3.49924000       0.02318000      -0.08526000
N       -2.57497000       1.25369000      -0.03524000
C       -1.19575000       1.20584000       0.05732000
C       -0.71577000       2.54622000       0.10113000
C       -1.83251000       3.35578000       0.02817000
C       -2.96333000       2.53223000      -0.05531000
C       -4.38446000       2.92990000      -0.15259000
C       -4.45263000      -2.86163000      -0.16112000
C        0.62722000      -3.06213000       0.09704000
C        0.69215000       3.01195000       0.20610000
H        7.66666000      -0.96978000       0.64182000
H        7.61344000       0.78096000       0.89901000
H        8.22782000       0.12656000      -0.62971000
H        5.44188000      -0.12782000       1.47350000
H        3.71657000       0.10209000      -1.77432000
H        3.43455000      -0.19753000       2.47934000
H        1.25790000       0.11861000      -1.92443000
H        0.98134000      -0.18045000       2.32065000
H        1.10676000      -2.76675000       1.02935000
H        1.22010000      -2.65504000      -0.72059000
H        0.63200000      -4.14746000       0.02960000
H       -1.94612000      -4.41971000      -0.05352000
H       -4.57554000      -3.94085000      -0.16246000
H       -4.99067000      -2.42883000       0.68110000
H       -4.88821000      -2.43956000      -1.06587000
F       -4.36015000       0.03265000       1.00266000
F       -4.24406000       0.03270000      -1.25431000
H       -4.94267000       2.50777000       0.68196000
H       -4.81896000       2.52061000      -1.06364000
H       -4.48181000       4.01173000      -0.15182000
H       -1.84671000       4.42846000       0.03405000
H        0.71306000       4.09665000       0.28009000
H        1.26833000       2.70968000      -0.66740000
H        1.17906000       2.58839000       1.08311000
C        3.20103002       2.82972047       2.20795756
