27
Properties=species:S:1:pos:R:3 aa2_plan_opt_TZ.log=T Energy:=T -349253.5921612=T pbc="F F F"
N        0.99902000      -0.03922000       0.30769000
C        1.32627000       1.30742000       0.73240000
C        1.91032000      -0.93364000      -0.18047000
C       -0.39245000      -0.26344000       0.17201000
C       -1.24724000       0.80729000      -0.10228000
C       -2.61140000       0.56595000      -0.20683000
C       -3.13279000      -0.70292000      -0.04673000
C       -2.28120000      -1.75681000       0.23799000
C       -0.92276000      -1.53809000       0.35375000
C       -0.74876000       2.22062000      -0.25887000
H       -3.26927000       1.39668000      -0.42144000
H       -4.19588000      -0.86746000      -0.13859000
H       -2.67481000      -2.75222000       0.37754000
H       -0.26304000      -2.35882000       0.57858000
O        1.58640000      -1.96251000      -0.73596000
C        3.37489000      -0.59053000       0.02170000
H        3.59608000      -0.40998000       1.07116000
H        3.95590000      -1.44311000      -0.32044000
H        3.65971000       0.27916000      -0.56666000
H       -1.17400000       2.65855000      -1.16465000
H       -1.11864000       2.80944000       0.58750000
C        0.77328000       2.29066000      -0.29754000
H        1.11715000       3.30358000      -0.08407000
H        1.13930000       2.00503000      -1.28602000
H        0.85385000       1.48913000       1.70484000
H        2.40042000       1.42563000       0.84524000
C       -2.14061445      -2.79881432      -2.62308912
