29
Properties=species:S:1:pos:R:3 aa306_opt_TZ.log=T Energy:=T -350010.1720386=T pbc="F F F"
C       -1.82333000      -1.42177000      -0.03612000
C       -0.97780000      -0.32943000      -0.20074000
C        0.44104000      -0.62302000      -0.58191000
C       -3.14658000      -1.24433000       0.31895000
C       -3.63819000       0.03796000       0.49654000
C       -2.80895000       1.12718000       0.30262000
O        0.73555000      -1.33481000      -1.52109000
C       -1.47337000       0.96711000      -0.04923000
C       -0.62564000       2.18438000      -0.28355000
N        1.36119000      -0.06280000       0.23736000
C        2.79010000      -0.23125000       0.06356000
H        3.29170000       1.84341000       0.42584000
C        3.43152000       1.09290000      -0.35039000
H        4.49711000       0.95755000      -0.51360000
H        2.98459000       1.45575000      -1.27268000
H        2.90412000      -0.96198000      -0.74397000
C        3.41257000      -0.77132000       1.34796000
H        4.47338000      -0.95461000       1.20146000
H        3.29470000      -0.05366000       2.15841000
H        2.93586000      -1.70485000       1.63657000
H       -0.20697000       2.55124000       0.65507000
H        0.19185000       1.97013000      -0.96666000
H       -1.23167000       2.98383000      -0.70509000
H        1.05530000       0.49497000       1.01842000
H       -1.42308000      -2.41233000      -0.19289000
H       -3.79257000      -2.09938000       0.44988000
H       -4.67146000       0.19080000       0.77173000
H       -3.20386000       2.12686000       0.41862000
C       -3.39183543       0.04992099       3.53477147
