24
Properties=species:S:1:pos:R:3 RH_Sub3.log=T Energy:=T -440525.1166955=T pbc="F F F"
N        3.62975000      -0.65810000      -0.39174000
H        3.60565000      -1.11494000      -1.30188000
H        4.57387000      -0.77418000      -0.03118000
C        2.65899000      -1.26067000       0.50253000
H        2.85090000      -2.33488000       0.70543000
H        2.72256000      -0.75057000       1.47953000
C        1.23180000      -1.15169000      -0.01915000
H        0.61135000      -1.83834000       0.57269000
H        1.19283000      -1.55168000      -1.04903000
C        0.59807000       0.22154000      -0.00360000
C        1.38716000       1.37734000       0.00700000
C       -0.80269000       0.38707000      -0.00643000
C        0.81490000       2.64757000       0.03080000
C       -1.37286000       1.66050000       0.01376000
C       -1.72306000      -0.80521000      -0.02816000
C       -0.56807000       2.79540000       0.03655000
H        1.46128000       3.52878000       0.03886000
H       -2.45907000       1.75783000       0.01219000
H       -1.02367000       3.78780000       0.05353000
H        2.47162000       1.25437000      -0.03811000
F       -1.61798000      -1.54451000       1.08896000
F       -1.46032000      -1.62471000      -1.05598000
F       -3.00626000      -0.45173000      -0.13294000
C       -0.78852411       3.24364902       3.04464776
