11

Kr     -0.252050000000000     -0.473730000000000      0.347550000000000
H       2.489210000000000     -1.469520000000000      1.339080000000000
C       1.914160000000000     -2.364500000000000      1.591690000000000
N       0.587300000000000     -2.284650000000000      1.397990000000000
N       2.556890000000000     -3.420910000000000      2.063160000000000
C      -0.141640000000000     -3.353620000000000      1.723410000000000
C       1.827910000000000     -4.492130000000000      2.368960000000000
C       0.444680000000000     -4.510400000000000      2.223060000000000
H      -1.221920000000000     -3.274020000000000      1.572270000000000
H       2.367850000000000     -5.366880000000000      2.749810000000000
H      -0.154410000000000     -5.384020000000000      2.484250000000000
