12

Kr     -0.411620000000000     -0.072940000000000     -0.310590000000000
H       0.117300000000000      1.149880000000000     -2.731230000000000
C      -0.896090000000000      1.018540000000000     -2.351090000000000
C      -1.752560000000000      2.136830000000000     -2.155990000000000
C      -1.564860000000000     -0.232850000000000     -2.426700000000000
N      -3.043150000000000      2.036930000000000     -1.947150000000000
H      -1.331010000000000      3.148020000000000     -2.186260000000000
N      -2.902910000000000     -0.330990000000000     -2.241190000000000
H      -1.066190000000000     -1.113340000000000     -2.838940000000000
C      -3.548630000000000      0.781890000000000     -1.977260000000000
C      -4.962100000000000      0.662360000000000     -1.690360000000000
N      -6.084990000000000      0.559410000000000     -1.424050000000000
