14

Kr      0.334510000000000     -0.024980000000000      0.372890000000000
H       0.641990000000000     -0.248750000000000      3.168900000000000
C       1.307310000000000     -0.829650000000000      2.528300000000000
C       2.713830000000000     -0.624490000000000      2.421240000000000
C       0.886710000000000     -2.034870000000000      1.951370000000000
C       3.355210000000000     -1.640640000000000      1.755280000000000
H       3.235960000000000      0.257390000000000      2.792510000000000
S       2.247410000000000     -2.900670000000000      1.283640000000000
C      -0.351300000000000     -2.790560000000000      2.306680000000000
C       4.709270000000000     -1.666060000000000      1.348280000000000
H      -1.128650000000000     -2.074740000000000      2.594780000000000
H      -0.140090000000000     -3.462590000000000      3.154520000000000
H      -0.736910000000000     -3.387310000000000      1.472260000000000
N       5.817810000000000     -1.677740000000000      0.999530000000000
