13

Kr     -0.296590000000000     -0.065060000000000      0.017410000000000
H      -1.001540000000000      0.207110000000000      2.758110000000000
C      -1.765230000000000      0.779330000000000      2.224220000000000
C      -3.045040000000000      0.336680000000000      1.993640000000000
C      -1.593420000000000      2.118330000000000      1.747240000000000
S      -4.022980000000000      1.515920000000000      1.197000000000000
Cl     -3.718940000000000     -1.172710000000000      2.442160000000000
C      -2.716820000000000      2.659500000000000      1.173270000000000
H      -0.652590000000000      2.660370000000000      1.850770000000000
C      -2.904970000000000      4.013430000000000      0.580390000000000
H      -1.953290000000000      4.559950000000000      0.608520000000000
H      -3.655290000000000      4.604450000000000      1.129600000000000
H      -3.229070000000000      3.959920000000000     -0.471370000000000
