29

Kr      0.264920000000000     -0.008440000000000      0.037070000000000
H      -0.622730000000000     -0.229830000000000      2.764410000000000
C      -1.302320000000000      0.376970000000000      2.161110000000000
C      -2.562130000000000     -0.116960000000000      1.820670000000000
C      -0.975180000000000      1.692230000000000      1.798560000000000
C      -3.512010000000000      0.608280000000000      1.109170000000000
F      -2.859720000000000     -1.372880000000000      2.180860000000000
C      -1.933820000000000      2.452520000000000      1.112900000000000
H      -0.038220000000000      2.137570000000000      2.133150000000000
C      -3.168170000000000      1.924660000000000      0.762690000000000
C      -4.833790000000000     -0.032620000000000      0.765610000000000
Cl     -1.564470000000000      4.090010000000000      0.669270000000000
H      -3.868740000000000      2.548240000000000      0.207450000000000
H      -4.601300000000000     -1.061240000000000      0.432130000000000
C      -5.589120000000000      0.655640000000000     -0.368700000000000
H      -4.937220000000000      0.758560000000000     -1.250390000000000
H      -5.861580000000000      1.680910000000000     -0.060270000000000
C      -6.862070000000000     -0.105110000000000     -0.721260000000000
H      -7.397710000000000      0.406300000000000     -1.537510000000000
H      -6.589680000000000     -1.105450000000000     -1.105730000000000
C      -7.769600000000000     -0.263380000000000      0.494160000000000
H      -8.665160000000000     -0.850190000000000      0.232960000000000
H      -8.131330000000000      0.734050000000000      0.803310000000000
C      -7.029190000000000     -0.909790000000000      1.659880000000000
H      -6.779020000000000     -1.953830000000000      1.397280000000000
H      -7.680350000000000     -0.962710000000000      2.547320000000000
C      -5.742530000000000     -0.164880000000000      1.997280000000000
H      -5.978420000000000      0.848180000000000      2.369670000000000
H      -5.201030000000000     -0.680850000000000      2.804030000000000
