16

Kr     -0.433580000000000     -0.125350000000000     -0.336350000000000
H      -0.021830000000000      1.708060000000000     -2.405950000000000
C      -0.999980000000000      1.331950000000000     -2.113690000000000
O      -1.946530000000000      2.276470000000000     -1.829510000000000
C      -1.641240000000000      0.130560000000000     -2.427490000000000
C      -3.173310000000000      1.689950000000000     -1.909420000000000
C      -3.061050000000000      0.384860000000000     -2.285370000000000
H      -1.195170000000000     -0.697170000000000     -2.975190000000000
C      -4.331030000000000      2.562290000000000     -1.603870000000000
C      -4.148800000000000     -0.606760000000000     -2.515920000000000
H      -4.221110000000000      3.039240000000000     -0.617770000000000
H      -5.262230000000000      1.981250000000000     -1.602680000000000
H      -4.428020000000000      3.369670000000000     -2.348570000000000
H      -4.182430000000000     -0.926370000000000     -3.570780000000000
H      -5.136580000000000     -0.197250000000000     -2.261020000000000
H      -3.996490000000000     -1.515430000000000     -1.912800000000000
