13

Kr     -0.176050000000000      0.282680000000000     -0.397860000000000
H      -0.343200000000000     -1.635420000000000     -2.681380000000000
C      -1.299090000000000     -1.510650000000000     -2.169810000000000
C      -2.002360000000000     -0.304790000000000     -2.262740000000000
C      -1.893830000000000     -2.586100000000000     -1.488630000000000
C      -3.247340000000000     -0.174150000000000     -1.640370000000000
H      -1.641250000000000      0.510450000000000     -2.889660000000000
C      -3.120680000000000     -2.453020000000000     -0.859140000000000
Cl     -1.086070000000000     -4.115190000000000     -1.465300000000000
C      -3.791550000000000     -1.225550000000000     -0.917210000000000
F      -3.894130000000000      0.982350000000000     -1.722940000000000
H      -3.569310000000000     -3.285180000000000     -0.318010000000000
Cl     -5.299360000000000     -1.015300000000000     -0.104040000000000
