16

Kr     -0.327620000000000     -0.081680000000000      0.234250000000000
H      -0.317440000000000      2.132600000000000      1.945200000000000
C      -1.235300000000000      1.622470000000000      1.651870000000000
C      -1.578610000000000      0.370620000000000      2.186550000000000
C      -2.383980000000000      2.290370000000000      1.089350000000000
S      -3.300490000000000      0.086260000000000      2.057860000000000
H      -1.019850000000000     -0.148510000000000      2.964120000000000
C      -3.548040000000000      1.593080000000000      1.210670000000000
H      -2.329830000000000      3.258790000000000      0.590410000000000
C      -4.903100000000000      1.950010000000000      0.690030000000000
C      -5.989870000000000      1.982840000000000      1.758730000000000
H      -5.186510000000000      1.235440000000000     -0.102950000000000
H      -4.822170000000000      2.932320000000000      0.197700000000000
H      -6.964130000000000      2.253160000000000      1.324090000000000
H      -5.748190000000000      2.713720000000000      2.544940000000000
H      -6.099990000000000      1.000500000000000      2.244130000000000
