21

Kr     -0.404200000000000     -0.030070000000000     -0.120640000000000
H      -0.946830000000000     -1.001970000000000     -2.709520000000000
C      -1.148190000000000     -1.797750000000000     -1.989410000000000
C      -2.444860000000000     -2.071060000000000     -1.491860000000000
C      -0.160890000000000     -2.745630000000000     -1.705030000000000
C      -2.659720000000000     -3.202010000000000     -0.662990000000000
N      -3.486530000000000     -1.238960000000000     -1.817200000000000
O       1.092450000000000     -2.740980000000000     -2.192500000000000
C      -0.369610000000000     -3.897260000000000     -0.922580000000000
C      -1.642970000000000     -4.103330000000000     -0.382040000000000
H      -3.653960000000000     -3.380670000000000     -0.253480000000000
C       1.710480000000000     -3.856760000000000     -1.721890000000000
C       0.883510000000000     -4.608950000000000     -0.954410000000000
H      -1.849640000000000     -4.975960000000000      0.242040000000000
H       2.749070000000000     -3.973530000000000     -2.018660000000000
H       1.128520000000000     -5.553380000000000     -0.474400000000000
H      -3.286780000000000     -0.536450000000000     -2.513380000000000
C      -4.862180000000000     -1.541290000000000     -1.563130000000000
H      -5.484190000000000     -0.733180000000000     -1.971120000000000
H      -5.074050000000000     -1.599690000000000     -0.481170000000000
H      -5.190520000000000     -2.493230000000000     -2.022730000000000
