38

Kr     -1.039870000000000     -0.367450000000000     -0.484160000000000
H       0.730940000000000      0.816080000000000     -2.464090000000000
C       1.057070000000000     -0.189400000000000     -2.199840000000000
C       0.345860000000000     -1.332030000000000     -2.592120000000000
C       2.306180000000000     -0.398740000000000     -1.583730000000000
C       0.880040000000000     -2.618030000000000     -2.330620000000000
H      -0.560880000000000     -1.244100000000000     -3.192130000000000
C       2.714340000000000     -1.740590000000000     -1.393770000000000
C       3.362110000000000      0.448120000000000     -1.115260000000000
N       2.039380000000000     -2.838400000000000     -1.732000000000000
H       0.314270000000000     -3.505060000000000     -2.638940000000000
N       3.962410000000000     -1.709350000000000     -0.837070000000000
C       4.367080000000000     -0.394670000000000     -0.674620000000000
C       3.350030000000000      1.942290000000000     -1.151760000000000
H       4.499190000000000     -2.531760000000000     -0.603010000000000
C       5.736720000000000     -0.059030000000000     -0.180600000000000
C       3.568170000000000      2.517400000000000     -2.548740000000000
H       4.119090000000000      2.336410000000000     -0.467950000000000
H       2.376680000000000      2.275000000000000     -0.757650000000000
H       3.535830000000000      3.618270000000000     -2.535020000000000
H       2.788280000000000      2.172330000000000     -3.244530000000000
H       4.541030000000000      2.211250000000000     -2.965150000000000
H       5.707030000000000      1.003670000000000      0.117290000000000
C       6.786540000000000     -0.187690000000000     -1.297200000000000
H       6.480420000000000      0.428900000000000     -2.156720000000000
H       6.796790000000000     -1.233480000000000     -1.655170000000000
C       8.178200000000000      0.204350000000000     -0.815400000000000
H       8.912269999999999      0.070430000000000     -1.626420000000000
H       8.183030000000000      1.281600000000000     -0.568530000000000
C       8.591300000000000     -0.593060000000000      0.416590000000000
H       9.580800000000000     -0.265140000000000      0.774180000000000
H       8.698850000000000     -1.657840000000000      0.139700000000000
C       7.555720000000000     -0.469010000000000      1.528520000000000
H       7.525540000000000      0.577160000000000      1.883180000000000
H       7.846670000000000     -1.081210000000000      2.397440000000000
C       6.165160000000000     -0.868440000000000      1.048400000000000
H       6.173600000000000     -1.945520000000000      0.795790000000000
H       5.425400000000000     -0.745190000000000      1.853280000000000
