18

Kr     -0.293000000000000     -0.075780000000000      0.171230000000000
H      -0.502330000000000      2.310800000000000      1.674260000000000
C      -1.385440000000000      1.765960000000000      1.348720000000000
C      -1.805060000000000      0.548620000000000      1.885730000000000
C      -2.535540000000000      2.287320000000000      0.649620000000000
O      -3.122290000000000      0.333890000000000      1.561830000000000
H      -1.436490000000000     -0.003520000000000      2.746370000000000
C      -3.534010000000000      1.377160000000000      0.797000000000000
H      -2.595080000000000      3.217130000000000      0.089420000000000
C      -4.937660000000000      1.290450000000000      0.292120000000000
N      -5.942910000000000      1.040790000000000      1.302310000000000
H      -5.000450000000000      0.488400000000000     -0.463460000000000
H      -5.168920000000000      2.230540000000000     -0.234720000000000
H      -5.752290000000000      0.140800000000000      1.737180000000000
C      -6.031910000000000      2.066190000000000      2.315690000000000
H      -6.796510000000000      1.788940000000000      3.056760000000000
H      -6.354170000000000      3.015100000000000      1.855540000000000
H      -5.085190000000000      2.270360000000000      2.858260000000000
