22

Kr      0.106800000000000     -0.225060000000000     -0.234110000000000
H       0.715370000000000      0.338470000000000     -3.070120000000000
C       1.362330000000000      0.855530000000000     -2.362220000000000
C       2.554530000000000      0.315860000000000     -1.865260000000000
C       1.108660000000000      2.211040000000000     -2.058170000000000
C       3.394310000000000      1.061030000000000     -1.021000000000000
N       3.151180000000000     -0.921030000000000     -2.064630000000000
O       0.040760000000000      2.750900000000000     -2.655450000000000
C       1.961730000000000      2.946760000000000     -1.213040000000000
C       3.109580000000000      2.366490000000000     -0.672110000000000
O       4.455330000000000      0.277430000000000     -0.693290000000000
C       4.234100000000000     -0.887270000000000     -1.361220000000000
C      -0.331090000000000      4.067490000000000     -2.343380000000000
H       1.741280000000000      3.982260000000000     -0.965260000000000
Cl      4.137080000000000      3.245370000000000      0.400100000000000
C       5.248530000000000     -1.949290000000000     -1.201950000000000
H      -1.230010000000000      4.281470000000000     -2.934190000000000
H       0.457360000000000      4.788550000000000     -2.622950000000000
H      -0.574500000000000      4.155250000000000     -1.274830000000000
H       4.923500000000000     -2.838270000000000     -1.753990000000000
H       5.373340000000000     -2.198060000000000     -0.137330000000000
H       6.224970000000000     -1.615690000000000     -1.584970000000000
