18

Kr      0.403150000000000     -0.137210000000000     -0.298110000000000
H       1.203470000000000     -0.042860000000000     -3.088520000000000
C       1.696180000000000      0.639280000000000     -2.400900000000000
N       3.053850000000000      0.649600000000000     -2.216750000000000
C       1.176660000000000      1.795770000000000     -1.814790000000000
C       3.441410000000000      1.767130000000000     -1.507240000000000
H       3.674900000000000     -0.101000000000000     -2.479860000000000
C       2.297450000000000      2.496440000000000     -1.258690000000000
H       0.168220000000000      2.168490000000000     -1.964800000000000
C       4.840860000000000      2.032130000000000     -1.093950000000000
O       2.280730000000000      3.652830000000000     -0.555030000000000
H       5.212110000000000      1.290410000000000     -0.366340000000000
H       4.886860000000000      3.019970000000000     -0.616640000000000
H       5.532230000000000      2.035200000000000     -1.953290000000000
C       1.305330000000000      4.579300000000000     -0.966740000000000
H       1.419470000000000      4.830450000000000     -2.036690000000000
H       0.285970000000000      4.194090000000000     -0.796520000000000
H       1.449840000000000      5.488670000000000     -0.367910000000000
