17

Kr     -0.305490000000000     -0.056530000000000     -0.145520000000000
H      -0.398940000000000     -1.072000000000000     -2.778560000000000
C      -1.280530000000000     -0.530120000000000     -2.438030000000000
C      -1.308610000000000      0.868580000000000     -2.456760000000000
C      -2.519480000000000     -1.177470000000000     -2.166400000000000
N      -2.432140000000000      1.581860000000000     -2.234680000000000
H      -0.428090000000000      1.420490000000000     -2.793590000000000
N      -3.622800000000000     -0.466640000000000     -1.895700000000000
N      -2.649390000000000     -2.516980000000000     -2.163120000000000
C      -3.502460000000000      0.859140000000000     -1.952530000000000
C      -4.715920000000000      1.601990000000000     -1.658340000000000
N      -5.680240000000000      2.188500000000000     -1.399940000000000
H      -3.596210000000000     -2.844290000000000     -2.016080000000000
C      -1.621630000000000     -3.446610000000000     -2.545120000000000
H      -1.817830000000000     -4.419430000000000     -2.073910000000000
H      -0.636270000000000     -3.093150000000000     -2.207680000000000
H      -1.570850000000000     -3.595820000000000     -3.639160000000000
