30

Kr      0.166580000000000      0.360300000000000     -0.181120000000000
H      -0.086820000000000      0.744030000000000     -3.175460000000000
C      -1.037850000000000      0.704540000000000     -2.647380000000000
N      -1.921980000000000      1.741480000000000     -2.629340000000000
C      -1.638710000000000     -0.353520000000000     -1.973540000000000
C      -3.060650000000000      1.411600000000000     -1.924110000000000
H      -1.716970000000000      2.673840000000000     -2.960820000000000
C      -2.924460000000000      0.094550000000000     -1.513990000000000
H      -1.268290000000000     -1.376380000000000     -1.963920000000000
C      -4.131680000000000      2.436650000000000     -1.743370000000000
C      -3.848930000000000     -0.794880000000000     -0.734950000000000
H      -4.328540000000000      2.649740000000000     -0.681620000000000
H      -5.085640000000000      2.128380000000000     -2.197630000000000
H      -3.836090000000000      3.384570000000000     -2.217850000000000
H      -3.210970000000000     -1.309360000000000      0.009410000000000
C      -4.465050000000000     -1.893350000000000     -1.613950000000000
H      -3.667170000000000     -2.427150000000000     -2.154390000000000
H      -5.093660000000000     -1.414020000000000     -2.386450000000000
C      -5.299070000000000     -2.872500000000000     -0.795370000000000
H      -5.762470000000000     -3.624290000000000     -1.454970000000000
H      -4.629760000000000     -3.428640000000000     -0.115250000000000
C      -6.364930000000000     -2.157580000000000      0.028060000000000
H      -6.915870000000000     -2.878380000000000      0.654280000000000
H      -7.108850000000000     -1.707160000000000     -0.654390000000000
C      -5.754770000000000     -1.056870000000000      0.889240000000000
H      -5.088760000000000     -1.510800000000000      1.645920000000000
H      -6.541840000000000     -0.523990000000000      1.448020000000000
C      -4.948830000000000     -0.076900000000000      0.045170000000000
H      -5.631170000000000      0.428300000000000     -0.660130000000000
H      -4.511950000000000      0.708270000000000      0.680600000000000
