14

Kr      0.004500000000000     -0.289500000000000     -0.268710000000000
H       0.793650000000000     -0.619380000000000     -2.919770000000000
C       1.469270000000000     -0.199640000000000     -2.171810000000000
N       2.626180000000000     -0.871850000000000     -1.945840000000000
C       1.292110000000000      1.121540000000000     -1.680070000000000
C       3.546040000000000     -0.277470000000000     -1.258660000000000
N       2.326950000000000      1.742710000000000     -1.044310000000000
H       0.487210000000000      1.757130000000000     -2.052230000000000
Cl      5.002650000000000     -1.162680000000000     -0.898420000000000
C       3.424550000000000      1.075040000000000     -0.802450000000000
C       4.539410000000000      1.784250000000000     -0.101800000000000
H       5.015830000000000      1.142810000000000      0.650200000000000
H       4.142730000000000      2.694970000000000      0.361200000000000
Cl      5.822940000000000      2.273470000000000     -1.254610000000000
