25

Kr      0.058230000000000     -0.219360000000000      0.164680000000000
H      -0.749090000000000      2.084750000000000      1.536170000000000
C      -1.457320000000000      1.313100000000000      1.233890000000000
C      -1.530550000000000      0.082560000000000      1.903620000000000
C      -2.645590000000000      1.564420000000000      0.458240000000000
S      -3.077370000000000     -0.683950000000000      1.631450000000000
H      -0.962160000000000     -0.177710000000000      2.795450000000000
C      -3.593520000000000      0.587980000000000      0.551920000000000
H      -2.770430000000000      2.440900000000000     -0.178720000000000
C      -4.894590000000000      0.508250000000000     -0.179470000000000
C      -6.166320000000000      0.917830000000000      0.602360000000000
H      -5.036600000000000     -0.514890000000000     -0.567950000000000
H      -4.812970000000000      1.160380000000000     -1.064440000000000
C      -6.015420000000000      2.340890000000000      1.138370000000000
H      -6.928540000000000      2.657030000000000      1.667010000000000
H      -5.170650000000000      2.413820000000000      1.839730000000000
H      -5.834690000000000      3.057240000000000      0.320410000000000
C      -7.341760000000000      0.858460000000000     -0.375100000000000
H      -7.465890000000000     -0.156340000000000     -0.786550000000000
H      -8.283540000000000      1.135920000000000      0.123970000000000
H      -7.193120000000000      1.549150000000000     -1.220710000000000
C      -6.427370000000000     -0.044600000000000      1.761300000000000
H      -7.362270000000000      0.220550000000000      2.280080000000000
H      -6.525090000000000     -1.082600000000000      1.403330000000000
H      -5.613120000000000     -0.018130000000000      2.500710000000000
