17

Kr      0.257020000000000      0.271000000000000     -0.269870000000000
H      -1.112120000000000      1.125110000000000     -2.567870000000000
C      -1.002670000000000      1.771670000000000     -1.696100000000000
C      -0.343560000000000      3.035450000000000     -1.715260000000000
C      -1.797540000000000      1.584490000000000     -0.547030000000000
C      -0.619910000000000      3.798610000000000     -0.608790000000000
H       0.337200000000000      3.361290000000000     -2.501800000000000
S      -1.744130000000000      3.016670000000000      0.468180000000000
C      -3.010220000000000      0.705860000000000     -0.528780000000000
C       0.000730000000000      5.019320000000000     -0.251910000000000
H      -2.811850000000000     -0.123580000000000     -1.219130000000000
C      -4.279610000000000      1.380500000000000     -0.980440000000000
H      -3.200930000000000      0.255380000000000      0.452130000000000
N       0.528120000000000      6.010140000000000      0.048390000000000
F      -4.727430000000000      2.277600000000000     -0.092190000000000
F      -5.248800000000000      0.467040000000000     -1.134260000000000
F      -4.137890000000000      2.012600000000000     -2.148310000000000
