15

Kr     -0.409960000000000     -0.122710000000000     -0.241530000000000
H      -0.193740000000000      1.612530000000000     -2.505420000000000
C      -1.228700000000000      1.339800000000000     -2.296980000000000
C      -2.179010000000000      2.280960000000000     -1.867910000000000
C      -1.681380000000000      0.044770000000000     -2.595790000000000
C      -3.511540000000000      1.915640000000000     -1.735100000000000
H      -1.865340000000000      3.301640000000000     -1.634860000000000
N      -2.970360000000000     -0.321470000000000     -2.478850000000000
H      -0.989910000000000     -0.683910000000000     -3.027170000000000
C      -3.836800000000000      0.581480000000000     -2.058700000000000
C      -4.570540000000000      2.884060000000000     -1.302030000000000
H      -4.879590000000000      0.249870000000000     -1.961600000000000
H      -5.006070000000000      3.411440000000000     -2.167170000000000
H      -4.161360000000000      3.646710000000000     -0.623600000000000
H      -5.392530000000000      2.370880000000000     -0.781850000000000
