16

Kr     -0.204410000000000     -0.046420000000000      0.023580000000000
H      -1.001880000000000     -0.192170000000000      2.805530000000000
C      -1.749790000000000      0.367290000000000      2.239490000000000
C      -3.016060000000000     -0.134480000000000      1.975910000000000
C      -1.492110000000000      1.689050000000000      1.813010000000000
O      -3.507860000000000     -1.378370000000000      2.235030000000000
C      -3.977070000000000      0.597170000000000      1.291950000000000
C      -2.489290000000000      2.425220000000000      1.158720000000000
H      -0.541630000000000      2.159960000000000      2.064620000000000
C      -4.886490000000000     -1.302780000000000      1.938850000000000
O      -5.079250000000000     -0.180830000000000      1.096520000000000
C      -3.751940000000000      1.896850000000000      0.871860000000000
Cl     -2.155170000000000      4.054200000000000      0.664150000000000
H      -5.461910000000000     -1.164120000000000      2.876690000000000
H      -5.202680000000000     -2.216930000000000      1.416650000000000
H      -4.506050000000000      2.474280000000000      0.338790000000000
