18

Kr     -0.279170000000000      0.062020000000000      0.223440000000000
H      -0.868160000000000      0.001350000000000      2.994680000000000
C      -1.459840000000000      0.661470000000000      2.364770000000000
C      -2.862200000000000      0.562790000000000      2.093120000000000
C      -1.080960000000000      1.932170000000000      1.946670000000000
C      -3.236510000000000      1.751970000000000      1.493240000000000
O      -3.563310000000000     -0.523620000000000      2.396200000000000
O      -2.144690000000000      2.581130000000000      1.419450000000000
C       0.074040000000000      2.775020000000000      2.331120000000000
C      -4.423460000000000      2.187330000000000      0.872660000000000
H       0.944710000000000      2.142180000000000      2.531190000000000
H      -0.184250000000000      3.353810000000000      3.233980000000000
H       0.317610000000000      3.482150000000000      1.529330000000000
N      -5.405260000000000      2.534980000000000      0.354280000000000
C      -4.946460000000000     -0.525890000000000      2.128880000000000
H      -5.455590000000000      0.295410000000000      2.659130000000000
H      -5.145930000000000     -0.431910000000000      1.049640000000000
H      -5.331330000000000     -1.488550000000000      2.485850000000000
