28

Kr      0.323180000000000     -0.217630000000000      0.118680000000000
H      -0.681830000000000     -0.183050000000000      2.820790000000000
C      -1.443840000000000      0.125410000000000      2.104430000000000
C      -2.604290000000000     -0.664710000000000      1.908000000000000
C      -1.315920000000000      1.384780000000000      1.499400000000000
C      -3.574530000000000     -0.152270000000000      1.084680000000000
H      -2.720820000000000     -1.639080000000000      2.383790000000000
C      -2.346780000000000      1.902200000000000      0.674120000000000
H      -0.467530000000000      2.011710000000000      1.775300000000000
C      -3.447430000000000      1.107520000000000      0.481670000000000
O      -4.756590000000000     -0.705780000000000      0.709320000000000
H      -2.263540000000000      2.879830000000000      0.200870000000000
O      -4.552480000000000      1.350060000000000     -0.270320000000000
C      -5.430750000000000      0.244250000000000     -0.108370000000000
H      -5.596070000000000     -0.213290000000000     -1.101840000000000
C      -6.767480000000000      0.668930000000000      0.504060000000000
C      -6.531310000000000      1.299630000000000      1.875100000000000
H      -7.489250000000000      1.608440000000000      2.320300000000000
H      -6.052070000000000      0.588010000000000      2.563580000000000
H      -5.891190000000000      2.190840000000000      1.797900000000000
C      -7.415890000000000      1.677400000000000     -0.443860000000000
H      -7.581530000000000      1.240370000000000     -1.442090000000000
H      -8.393739999999999      1.995400000000000     -0.051620000000000
H      -6.783560000000000      2.569090000000000     -0.562330000000000
C      -7.640580000000000     -0.578910000000000      0.632340000000000
H      -8.623989999999999     -0.315210000000000      1.050160000000000
H      -7.809830000000000     -1.052320000000000     -0.348590000000000
H      -7.171220000000000     -1.321430000000000      1.293790000000000
