25

Kr      0.065100000000000     -0.367380000000000     -0.246370000000000
H       0.325820000000000     -0.534990000000000     -3.219430000000000
C       1.298270000000000     -0.637480000000000     -2.734030000000000
C       2.010190000000000     -1.846510000000000     -2.788460000000000
C       1.871290000000000      0.476480000000000     -2.109330000000000
C       3.259380000000000     -1.935500000000000     -2.196800000000000
H       1.572050000000000     -2.713840000000000     -3.287980000000000
C       3.151330000000000      0.396650000000000     -1.513150000000000
H       1.359910000000000      1.440550000000000     -2.163310000000000
C       3.822130000000000     -0.822010000000000     -1.556330000000000
H       3.816190000000000     -2.875740000000000     -2.228860000000000
C       3.686820000000000      1.616810000000000     -0.812880000000000
H       4.803530000000000     -0.922990000000000     -1.089260000000000
C       5.127780000000000      1.577910000000000     -0.310100000000000
H       3.006880000000000      1.822250000000000      0.030470000000000
H       3.566020000000000      2.487650000000000     -1.482870000000000
H       5.272250000000000      0.627600000000000      0.235630000000000
C       6.133260000000000      1.635460000000000     -1.455850000000000
H       7.167110000000000      1.536140000000000     -1.089390000000000
H       5.957840000000000      0.842680000000000     -2.197920000000000
H       6.058200000000000      2.601360000000000     -1.982570000000000
C       5.371810000000000      2.707050000000000      0.685020000000000
H       4.702990000000000      2.625560000000000      1.556390000000000
H       6.409940000000000      2.701470000000000      1.052350000000000
H       5.188540000000000      3.689640000000000      0.219420000000000
