23

Kr     -0.184660000000000      0.168990000000000     -0.113750000000000
H       0.857780000000000     -0.584460000000000     -2.702230000000000
C       1.254310000000000      0.353860000000000     -2.311450000000000
C       2.610530000000000      0.453660000000000     -1.928010000000000
C       0.476280000000000      1.517900000000000     -2.308010000000000
C       3.140790000000000      1.693070000000000     -1.516580000000000
N       3.494290000000000     -0.599790000000000     -1.880950000000000
C       1.042050000000000      2.761910000000000     -1.932220000000000
H      -0.536150000000000      1.481570000000000     -2.712810000000000
C       2.360100000000000      2.860990000000000     -1.528150000000000
S       4.797460000000000      1.480380000000000     -1.034770000000000
C       4.647500000000000     -0.224110000000000     -1.443300000000000
H       0.415410000000000      3.655780000000000     -1.952520000000000
H       2.781610000000000      3.820800000000000     -1.223420000000000
C       5.834600000000000     -1.114300000000000     -1.282780000000000
H       5.455520000000000     -2.155480000000000     -1.209050000000000
N       6.659770000000000     -0.677930000000000     -0.186610000000000
H       6.437440000000000     -1.069670000000000     -2.208870000000000
H       6.121140000000000     -0.707770000000000      0.675740000000000
C       7.899190000000000     -1.399040000000000     -0.045620000000000
H       8.457810000000000     -1.018920000000000      0.822410000000000
H       8.528980000000001     -1.236660000000000     -0.935410000000000
H       7.782320000000000     -2.497720000000000      0.076160000000000
