14

Kr     -0.351830000000000     -0.294120000000000     -0.292450000000000
H      -0.557620000000000      1.574290000000000     -2.363680000000000
C      -1.327430000000000      0.868690000000000     -2.059750000000000
O      -2.566760000000000      1.429080000000000     -1.775670000000000
C      -1.533880000000000     -0.460620000000000     -2.442390000000000
C      -3.491610000000000      0.467130000000000     -1.927400000000000
C      -2.950520000000000     -0.709210000000000     -2.351100000000000
H      -0.808410000000000     -1.065510000000000     -2.981100000000000
O      -4.748320000000000      0.762840000000000     -1.622640000000000
H      -3.490830000000000     -1.631080000000000     -2.542760000000000
C      -5.038520000000000      2.094910000000000     -1.261580000000000
H      -4.494270000000000      2.389590000000000     -0.350220000000000
H      -4.776780000000000      2.798330000000000     -2.067810000000000
H      -6.118480000000000      2.133570000000000     -1.075440000000000
