30

Kr      0.081610000000000      0.223350000000000     -0.366710000000000
H      -0.090820000000000     -1.123460000000000     -2.951510000000000
C      -0.977030000000000     -1.274640000000000     -2.337740000000000
C      -1.993840000000000     -0.395530000000000     -1.965150000000000
N      -1.335200000000000     -2.526000000000000     -1.916620000000000
C      -2.987240000000000     -1.153710000000000     -1.267440000000000
H      -2.087840000000000      0.638310000000000     -2.290360000000000
C      -2.532830000000000     -2.456930000000000     -1.254590000000000
C      -0.504520000000000     -3.696260000000000     -2.045820000000000
C      -4.269880000000000     -0.612990000000000     -0.712850000000000
H      -2.964600000000000     -3.347480000000000     -0.802850000000000
H       0.341540000000000     -3.643780000000000     -1.344590000000000
H      -0.121290000000000     -3.775410000000000     -3.073520000000000
H      -1.105070000000000     -4.590660000000000     -1.832820000000000
H      -4.043250000000000      0.372950000000000     -0.266190000000000
C      -4.863880000000000     -1.482550000000000      0.394670000000000
H      -4.110600000000000     -1.644160000000000      1.182730000000000
H      -5.100720000000000     -2.479980000000000     -0.019050000000000
C      -6.132760000000000     -0.867970000000000      0.973460000000000
H      -6.554790000000000     -1.522420000000000      1.753820000000000
H      -5.873260000000000      0.084060000000000      1.471980000000000
C      -7.169940000000000     -0.597260000000000     -0.111680000000000
H      -8.062049999999999     -0.113880000000000      0.319490000000000
H      -7.511690000000000     -1.560800000000000     -0.531750000000000
C      -6.589310000000000      0.256190000000000     -1.234390000000000
H      -6.353320000000000      1.261510000000000     -0.839050000000000
H      -7.336610000000000      0.404150000000000     -2.031210000000000
C      -5.318440000000000     -0.362120000000000     -1.805870000000000
H      -5.553030000000000     -1.324990000000000     -2.294470000000000
H      -4.889670000000000      0.283950000000000     -2.588900000000000
