17

Kr     -0.383400000000000      0.069250000000000      0.074480000000000
H      -1.329920000000000      0.220340000000000      2.768690000000000
C      -1.784610000000000      1.026840000000000      2.194720000000000
C      -3.113890000000000      1.113150000000000      1.788930000000000
C      -1.151740000000000      2.260960000000000      1.840420000000000
N      -3.277450000000000      2.338880000000000      1.210130000000000
C      -4.251200000000000      0.168200000000000      1.979950000000000
C      -2.105230000000000      3.048990000000000      1.227510000000000
H      -0.118620000000000      2.531150000000000      2.046160000000000
H      -4.131550000000000      2.650240000000000      0.768370000000000
C      -5.195140000000000      0.562830000000000      3.114510000000000
H      -3.830640000000000     -0.829510000000000      2.174300000000000
H      -4.822680000000000      0.077040000000000      1.038600000000000
H      -2.034180000000000      4.039500000000000      0.785460000000000
H      -6.016080000000000     -0.163170000000000      3.220560000000000
H      -5.643200000000000      1.553250000000000      2.938150000000000
H      -4.654680000000000      0.613030000000000      4.071320000000000
