16

Kr      0.044670000000000      0.092420000000000      0.038880000000000
H       1.344420000000000     -0.673360000000000     -2.438550000000000
C       1.828590000000000      0.186930000000000     -1.973190000000000
C       3.092560000000000      0.126970000000000     -1.401470000000000
C       1.241110000000000      1.470950000000000     -2.012820000000000
C       3.730270000000000      1.232370000000000     -0.870500000000000
O       3.887080000000000     -0.968930000000000     -1.191210000000000
C       1.910350000000000      2.598460000000000     -1.504440000000000
H       0.286650000000000      1.590580000000000     -2.527420000000000
C       3.171310000000000      2.499800000000000     -0.913750000000000
O       4.914950000000000      0.819080000000000     -0.312880000000000
C       5.108080000000000     -0.471220000000000     -0.773570000000000
H       1.424520000000000      3.573750000000000     -1.566190000000000
H       3.690790000000000      3.364970000000000     -0.500930000000000
H       5.554860000000000     -1.109540000000000     -0.003720000000000
Cl      6.285130000000000     -0.466070000000000     -2.168860000000000
