21

Kr      0.071840000000000     -0.208770000000000      0.147930000000000
H      -0.780060000000000     -0.243580000000000      2.901310000000000
C      -1.575220000000000      0.105610000000000      2.241840000000000
C      -2.762010000000000     -0.652290000000000      2.086030000000000
C      -1.454570000000000      1.382860000000000      1.672760000000000
C      -3.764090000000000     -0.091680000000000      1.335330000000000
H      -2.874470000000000     -1.639850000000000      2.534900000000000
C      -2.517420000000000      1.949400000000000      0.925910000000000
H      -0.576900000000000      1.981620000000000      1.918120000000000
C      -3.645790000000000      1.184290000000000      0.764610000000000
O      -4.977900000000000     -0.612790000000000      1.010570000000000
H      -2.437520000000000      2.940300000000000      0.480260000000000
O      -4.778500000000000      1.463180000000000      0.075550000000000
C      -5.703470000000000      0.374780000000000      0.307170000000000
H      -5.999450000000000     -0.000860000000000     -0.687900000000000
N      -6.846560000000000      0.736750000000000      1.031710000000000
H      -6.598730000000000      1.031230000000000      1.973560000000000
C      -7.748090000000000      1.651780000000000      0.371510000000000
H      -8.653740000000001      1.782240000000000      0.980590000000000
H      -8.063580000000000      1.223050000000000     -0.593170000000000
H      -7.314030000000000      2.649200000000000      0.169570000000000
