20

Kr     -0.231520000000000      0.294000000000000     -0.339400000000000
H      -0.569720000000000      0.006940000000000     -3.100540000000000
C      -1.398930000000000      0.101250000000000     -2.398310000000000
S      -2.621290000000000      1.315140000000000     -2.639250000000000
C      -1.912980000000000     -0.965040000000000     -1.629940000000000
C      -3.744580000000000      0.467660000000000     -1.635900000000000
C      -3.281220000000000     -0.726640000000000     -1.174600000000000
C      -1.383160000000000     -2.291670000000000     -1.707520000000000
H      -4.705640000000000      0.926360000000000     -1.408070000000000
C      -4.047910000000000     -1.695960000000000     -0.312500000000000
N      -1.051820000000000     -3.401140000000000     -1.787230000000000
H      -3.336070000000000     -2.034320000000000      0.458740000000000
C      -5.242140000000000     -1.051240000000000      0.380180000000000
H      -5.712650000000000     -1.766830000000000      1.071190000000000
H      -4.954750000000000     -0.159350000000000      0.955040000000000
H      -6.012000000000000     -0.751420000000000     -0.349640000000000
C      -4.504920000000000     -2.921420000000000     -1.110420000000000
H      -3.667830000000000     -3.436910000000000     -1.598960000000000
H      -4.999520000000000     -3.644680000000000     -0.443380000000000
H      -5.226780000000000     -2.624790000000000     -1.888030000000000
