19

Kr      0.150760000000000     -0.335640000000000     -0.260850000000000
H      -0.176810000000000      1.401800000000000     -2.457450000000000
C      -0.949600000000000      0.764980000000000     -2.033910000000000
N      -2.151050000000000      1.324570000000000     -1.615840000000000
C      -1.148960000000000     -0.607300000000000     -2.274050000000000
C      -3.089010000000000      0.339880000000000     -1.478530000000000
H      -2.156800000000000      2.207590000000000     -1.118680000000000
C      -2.519930000000000     -0.886000000000000     -1.930420000000000
H      -0.506540000000000     -1.244670000000000     -2.877490000000000
C      -4.393240000000000      0.328640000000000     -0.975420000000000
C      -3.310340000000000     -2.033710000000000     -1.909580000000000
N      -5.127340000000000     -0.777420000000000     -0.957390000000000
C      -5.080530000000000      1.576760000000000     -0.483070000000000
C      -4.610330000000000     -1.915950000000000     -1.415890000000000
H      -2.926370000000000     -2.996400000000000     -2.253670000000000
H      -5.266120000000000     -2.792680000000000     -1.381440000000000
F      -4.179340000000000      2.520230000000000     -0.134590000000000
F      -5.841990000000000      1.349450000000000      0.582730000000000
F      -5.858700000000000      2.120910000000000     -1.421350000000000
