18

Kr      0.354000000000000      0.150310000000000     -0.454420000000000
H      -0.679820000000000      1.084130000000000     -3.053640000000000
C      -0.122860000000000      1.839100000000000     -2.502400000000000
C       1.243270000000000      1.923520000000000     -2.207640000000000
N      -0.720230000000000      2.993920000000000     -2.098560000000000
C       1.436490000000000      3.191930000000000     -1.576640000000000
H       2.009100000000000      1.245650000000000     -2.574370000000000
C       0.211330000000000      3.820800000000000     -1.518270000000000
C      -2.140610000000000      3.232470000000000     -2.130250000000000
O       2.577940000000000      3.719840000000000     -1.076540000000000
H      -0.057370000000000      4.779890000000000     -1.084580000000000
H      -2.562890000000000      2.815260000000000     -3.054570000000000
H      -2.329170000000000      4.314670000000000     -2.121120000000000
H      -2.629460000000000      2.757550000000000     -1.266340000000000
C       3.773200000000000      3.198370000000000     -1.580320000000000
H       3.913410000000000      2.138100000000000     -1.304780000000000
H       3.823880000000000      3.282660000000000     -2.681340000000000
H       4.592420000000000      3.781860000000000     -1.139160000000000
