19

Kr      0.276990000000000     -0.139890000000000     -0.211920000000000
H       0.615150000000000      2.176050000000000     -2.058240000000000
C       1.486850000000000      1.535500000000000     -1.914840000000000
C       1.508530000000000      0.241300000000000     -2.457640000000000
C       2.694040000000000      2.021220000000000     -1.362920000000000
C       2.706630000000000     -0.531750000000000     -2.431940000000000
H       0.642500000000000     -0.126400000000000     -3.009920000000000
C       3.794680000000000      1.129740000000000     -1.375710000000000
C       3.149800000000000      3.232220000000000     -0.754970000000000
N       3.833490000000000     -0.102590000000000     -1.880970000000000
C       2.741160000000000     -1.878550000000000     -3.089410000000000
N       4.854820000000000      1.773090000000000     -0.798660000000000
C       4.470980000000000      3.038040000000000     -0.425870000000000
H       2.574050000000000      4.135580000000000     -0.574760000000000
H       5.768380000000000      1.358990000000000     -0.682220000000000
H       5.175990000000000      3.716850000000000      0.049350000000000
H       1.735370000000000     -2.221730000000000     -3.362440000000000
H       3.210790000000000     -2.619330000000000     -2.425560000000000
H       3.353030000000000     -1.833120000000000     -4.004860000000000
