19

Kr     -0.076010000000000     -0.244140000000000      0.025520000000000
H      -0.923760000000000     -0.233700000000000      2.746780000000000
C      -1.762530000000000      0.073590000000000      2.118380000000000
C      -2.855810000000000     -0.745530000000000      1.876880000000000
C      -1.845550000000000      1.387300000000000      1.607850000000000
C      -3.949910000000000     -0.330530000000000      1.124200000000000
O      -3.041110000000000     -2.036000000000000      2.251960000000000
C      -2.978960000000000      1.819580000000000      0.907310000000000
H      -1.046960000000000      2.092350000000000      1.839900000000000
C      -4.051180000000000      0.955050000000000      0.633750000000000
O      -4.819010000000000     -1.372480000000000      0.987740000000000
C      -4.381990000000000     -2.342860000000000      1.918200000000000
C      -3.087670000000000      3.243320000000000      0.449490000000000
H      -4.929850000000000      1.286030000000000      0.080050000000000
H      -4.427570000000000     -3.342560000000000      1.463250000000000
H      -5.008170000000000     -2.295660000000000      2.831530000000000
F      -2.250150000000000      4.047940000000000      1.108890000000000
F      -4.326780000000000      3.720600000000000      0.628440000000000
F      -2.820340000000000      3.389490000000000     -0.860070000000000
