26

Kr      0.010080000000000      0.159490000000000     -0.043840000000000
H       0.221160000000000      0.801170000000000     -2.770830000000000
C      -0.631470000000000      1.038160000000000     -2.134390000000000
S      -1.250500000000000      2.675560000000000     -2.106860000000000
C      -1.646830000000000      0.135990000000000     -1.777560000000000
C      -2.799310000000000      2.143530000000000     -1.537280000000000
C      -2.889850000000000      0.786950000000000     -1.423860000000000
H      -1.589590000000000     -0.919510000000000     -2.046150000000000
H      -3.556310000000000      2.884010000000000     -1.282300000000000
C      -4.108070000000000      0.004820000000000     -1.019870000000000
H      -3.775820000000000     -0.757700000000000     -0.292190000000000
C      -4.704710000000000     -0.764770000000000     -2.207610000000000
H      -3.926800000000000     -1.382300000000000     -2.684040000000000
H      -5.031950000000000     -0.035310000000000     -2.969880000000000
C      -5.881190000000000     -1.631800000000000     -1.773810000000000
H      -6.310880000000000     -2.154560000000000     -2.643740000000000
H      -5.513890000000000     -2.417980000000000     -1.088820000000000
C      -6.951880000000000     -0.810070000000000     -1.064100000000000
H      -7.770940000000000     -1.460970000000000     -0.716960000000000
H      -7.401340000000000     -0.103370000000000     -1.785180000000000
C      -6.365040000000000     -0.022790000000000      0.102740000000000
H      -6.017130000000000     -0.728820000000000      0.879120000000000
H      -7.141690000000000      0.601170000000000      0.574620000000000
C      -5.189980000000000      0.840930000000000     -0.340900000000000
H      -5.550140000000000      1.608770000000000     -1.049580000000000
H      -4.760470000000000      1.384630000000000      0.515910000000000
