25

Kr     -0.330090000000000     -0.275730000000000     -0.467730000000000
H       1.871610000000000      0.037690000000000     -2.358920000000000
C       1.771980000000000     -0.981420000000000     -1.987660000000000
C       0.699940000000000     -1.802950000000000     -2.361320000000000
C       2.805970000000000     -1.579510000000000     -1.241390000000000
C       0.666530000000000     -3.172280000000000     -1.966940000000000
H      -0.052860000000000     -1.438300000000000     -3.061610000000000
C       2.639680000000000     -2.942090000000000     -0.903080000000000
C       4.071860000000000     -1.149350000000000     -0.722950000000000
N       1.616790000000000     -3.731550000000000     -1.231580000000000
C      -0.458650000000000     -4.060080000000000     -2.409720000000000
N       3.749370000000000     -3.327690000000000     -0.204960000000000
C       4.612840000000000     -2.254250000000000     -0.104810000000000
C       4.655230000000000      0.220860000000000     -0.845110000000000
H       3.904090000000000     -4.260800000000000      0.147590000000000
H       5.564300000000000     -2.352880000000000      0.415000000000000
C       5.052370000000000      0.592540000000000     -2.270690000000000
H       5.532840000000000      0.299960000000000     -0.183130000000000
H       3.903570000000000      0.934500000000000     -0.470710000000000
H       5.474930000000000      1.608850000000000     -2.309420000000000
H       4.182070000000000      0.573260000000000     -2.943540000000000
H       5.802840000000000     -0.104340000000000     -2.675430000000000
H      -1.284040000000000     -3.485920000000000     -2.851260000000000
H      -0.841120000000000     -4.643160000000000     -1.559310000000000
H      -0.100690000000000     -4.782660000000000     -3.160930000000000
