19

Kr      0.264810000000000      0.337690000000000     -0.577160000000000
H      -0.468980000000000     -0.914010000000000     -2.964400000000000
C      -1.195080000000000     -0.410190000000000     -2.331010000000000
C      -1.363410000000000      0.961170000000000     -2.168680000000000
C      -2.430810000000000     -0.996730000000000     -1.839290000000000
O      -2.591900000000000      1.256400000000000     -1.615390000000000
H      -0.895630000000000      1.795900000000000     -2.685060000000000
C      -2.932520000000000     -2.294510000000000     -1.741180000000000
C      -3.218150000000000      0.082060000000000     -1.407050000000000
C      -4.214390000000000     -2.474630000000000     -1.226840000000000
H      -2.325070000000000     -3.145900000000000     -2.051020000000000
C      -4.482320000000000     -0.084240000000000     -0.847430000000000
C      -4.976840000000000     -1.387620000000000     -0.782210000000000
H      -4.630710000000000     -3.481110000000000     -1.150280000000000
C      -5.245380000000000      1.087620000000000     -0.311130000000000
H      -5.969270000000000     -1.550820000000000     -0.359960000000000
F      -6.444970000000000      0.729180000000000      0.154670000000000
F      -5.441600000000000      2.029890000000000     -1.237560000000000
F      -4.590400000000000      1.676290000000000      0.704420000000000
