12

Kr      0.213400000000000     -0.047200000000000     -0.091690000000000
H       0.840390000000000     -0.236090000000000     -2.889910000000000
C       1.563270000000000      0.316730000000000     -2.284360000000000
C       2.855260000000000     -0.185860000000000     -2.078900000000000
C       1.276120000000000      1.611900000000000     -1.823270000000000
F       3.161710000000000     -1.402220000000000     -2.502740000000000
C       3.791530000000000      0.587160000000000     -1.410090000000000
C       2.332820000000000      2.307900000000000     -1.194810000000000
H       0.339310000000000      2.107780000000000     -2.075040000000000
Cl      5.372570000000000     -0.058720000000000     -1.123620000000000
N       3.524540000000000      1.813930000000000     -0.986880000000000
Cl      2.049670000000000      3.928390000000000     -0.645010000000000
