13

Kr     -0.384120000000000     -0.094810000000000     -0.271660000000000
H       0.026830000000000      1.577940000000000     -2.466750000000000
C      -0.935440000000000      1.297830000000000     -2.042540000000000
O      -1.784280000000000      2.343520000000000     -1.764380000000000
C      -1.690050000000000      0.127870000000000     -2.232180000000000
C      -3.055510000000000      1.868790000000000     -1.702680000000000
C      -3.052780000000000      0.541670000000000     -1.997730000000000
H      -1.388260000000000     -0.745300000000000     -2.805650000000000
C      -4.134520000000000      2.814540000000000     -1.351280000000000
Cl     -4.424600000000000     -0.494030000000000     -2.016020000000000
H      -3.939230000000000      3.303080000000000     -0.384380000000000
H      -5.087410000000000      2.273790000000000     -1.286340000000000
H      -4.229240000000000      3.607530000000000     -2.110780000000000
