23

Kr      0.042600000000000     -0.049310000000000      0.018410000000000
H      -0.869700000000000     -0.524500000000000      2.681970000000000
C      -1.533740000000000      0.149870000000000      2.139830000000000
C      -2.845390000000000     -0.207140000000000      1.768310000000000
C      -1.179590000000000      1.491240000000000      1.930910000000000
C      -3.731610000000000      0.693510000000000      1.164710000000000
S      -3.650840000000000     -1.736560000000000      1.929710000000000
C      -2.069580000000000      2.428380000000000      1.365680000000000
H      -0.217500000000000      1.837020000000000      2.312940000000000
N      -4.963260000000000      0.190680000000000      0.822890000000000
C      -3.346310000000000      2.048710000000000      0.948590000000000
C      -5.073790000000000     -1.055590000000000      1.152580000000000
H      -1.736440000000000      3.457570000000000      1.233990000000000
N      -4.244160000000000      2.877990000000000      0.353950000000000
C      -6.280830000000000     -1.893420000000000      0.913070000000000
H      -6.048690000000000     -2.753420000000000      0.265200000000000
H      -7.045910000000000     -1.275290000000000      0.426190000000000
H      -6.690390000000000     -2.289630000000000      1.855180000000000
H      -5.149680000000000      2.471270000000000      0.163020000000000
C      -4.012260000000000      4.270050000000000      0.139160000000000
H      -4.874340000000000      4.708680000000000     -0.380430000000000
H      -3.118740000000000      4.441330000000000     -0.488680000000000
H      -3.862940000000000      4.827830000000000      1.083150000000000
