17

Kr      0.242970000000000     -0.252350000000000      0.088130000000000
H       0.687030000000000      1.213220000000000     -2.476930000000000
C       1.690670000000000      0.944740000000000     -2.134710000000000
C       2.214860000000000     -0.354590000000000     -2.388620000000000
N       2.409590000000000      1.884720000000000     -1.545660000000000
C       3.536740000000000     -0.560500000000000     -1.921870000000000
N       1.497980000000000     -1.283880000000000     -3.053750000000000
C       3.641270000000000      1.565780000000000     -1.150750000000000
N       4.232300000000000      0.382040000000000     -1.309760000000000
H       4.030250000000000     -1.528100000000000     -2.056880000000000
C       4.394640000000000      2.591960000000000     -0.470260000000000
N       4.986580000000000      3.406530000000000      0.103610000000000
H       0.484440000000000     -1.112200000000000     -3.083010000000000
C       1.985100000000000     -2.609170000000000     -3.296090000000000
H       1.205750000000000     -3.184600000000000     -3.812280000000000
H       2.246190000000000     -3.152990000000000     -2.368820000000000
H       2.879560000000000     -2.601440000000000     -3.943020000000000
