34

Kr      0.177480000000000      0.293410000000000     -0.198780000000000
H      -0.658190000000000      0.024860000000000     -2.943290000000000
C      -1.462320000000000     -0.249090000000000     -2.260500000000000
C      -2.420820000000000      0.652980000000000     -1.781080000000000
C      -1.705030000000000     -1.608680000000000     -1.982620000000000
C      -3.501600000000000      0.213490000000000     -1.002210000000000
N      -2.536510000000000      2.025310000000000     -1.952020000000000
O      -0.858270000000000     -2.479170000000000     -2.550960000000000
C      -2.811880000000000     -2.016660000000000     -1.209480000000000
C      -3.758910000000000     -1.119610000000000     -0.697930000000000
O      -4.236990000000000      1.325850000000000     -0.681780000000000
C      -3.593700000000000      2.355810000000000     -1.288480000000000
C      -0.977760000000000     -3.845260000000000     -2.267280000000000
H      -2.949970000000000     -3.078360000000000     -1.023350000000000
C      -4.987980000000000     -1.550270000000000      0.097320000000000
C      -4.169730000000000      3.705140000000000     -1.110240000000000
H      -0.169220000000000     -4.345530000000000     -2.814530000000000
H      -1.945170000000000     -4.251790000000000     -2.612720000000000
H      -0.843810000000000     -4.034230000000000     -1.192210000000000
H      -3.536960000000000      4.433160000000000     -1.630410000000000
H      -4.220960000000000      3.958270000000000     -0.040170000000000
H      -5.192110000000000      3.752690000000000     -1.515090000000000
C      -5.079370000000000     -3.069920000000000      0.229500000000000
H      -5.981020000000000     -3.335390000000000      0.801990000000000
H      -5.152970000000000     -3.559880000000000     -0.753370000000000
H      -4.213450000000000     -3.487670000000000      0.762230000000000
C      -4.915520000000000     -0.934730000000000      1.502360000000000
H      -4.869620000000000      0.162620000000000      1.456750000000000
H      -5.804200000000000     -1.218180000000000      2.088790000000000
H      -4.022420000000000     -1.293490000000000      2.035240000000000
C      -6.250770000000000     -1.051530000000000     -0.622450000000000
H      -7.149610000000000     -1.358740000000000     -0.064460000000000
H      -6.261280000000000      0.043300000000000     -0.710130000000000
H      -6.315630000000000     -1.477760000000000     -1.635350000000000
