16

Kr     -0.387050000000000      0.140370000000000     -0.348060000000000
H      -0.605220000000000      0.199420000000000     -3.165340000000000
C      -1.319890000000000     -0.254280000000000     -2.478770000000000
S      -3.016610000000000      0.087870000000000     -2.656110000000000
C      -1.122440000000000     -1.517940000000000     -1.874470000000000
C      -3.468690000000000     -1.357550000000000     -1.801400000000000
C      -2.389830000000000     -2.119600000000000     -1.443080000000000
C      -0.043730000000000     -2.395280000000000     -2.212240000000000
H      -4.510700000000000     -1.529580000000000     -1.539730000000000
N      -2.382780000000000     -3.305730000000000     -0.765570000000000
N       0.755620000000000     -3.183170000000000     -2.504900000000000
H      -1.570840000000000     -3.409300000000000     -0.156330000000000
C      -3.611400000000000     -3.904090000000000     -0.340700000000000
H      -3.400610000000000     -4.859720000000000      0.158670000000000
H      -4.254700000000000     -4.115730000000000     -1.211280000000000
H      -4.198080000000000     -3.270900000000000      0.356150000000000
