30

Kr     -0.582440000000000      0.350260000000000      0.275450000000000
H       0.388160000000000      0.560510000000000      2.882730000000000
C       1.081890000000000      0.493950000000000      2.042200000000000
N       1.927830000000000      1.536790000000000      1.859400000000000
C       1.283780000000000     -0.723880000000000      1.346820000000000
C       2.898380000000000      1.384730000000000      1.018020000000000
N       2.369020000000000     -0.864780000000000      0.535070000000000
H       0.765970000000000     -1.636350000000000      1.647110000000000
Cl      3.956360000000000      2.751870000000000      0.751370000000000
C       3.164080000000000      0.157330000000000      0.326640000000000
C       4.356550000000000     -0.019740000000000     -0.561210000000000
H       4.497040000000000      0.891300000000000     -1.163240000000000
H       4.139210000000000     -0.853470000000000     -1.246210000000000
C       5.652050000000000     -0.310860000000000      0.206400000000000
H       5.787820000000000      0.494680000000000      0.952950000000000
C       6.857500000000000     -0.271870000000000     -0.732130000000000
H       6.909560000000000      0.710850000000000     -1.230470000000000
H       6.707160000000000     -1.020320000000000     -1.532790000000000
C       8.162580000000000     -0.565590000000000     -0.000580000000000
H       9.005960000000000     -0.564200000000000     -0.710320000000000
H       8.362060000000000      0.248760000000000      0.719400000000000
C       8.097709999999999     -1.891120000000000      0.750310000000000
H       9.033420000000000     -2.063960000000000      1.306640000000000
H       8.012850000000000     -2.716910000000000      0.020430000000000
C       6.899020000000000     -1.933040000000000      1.691660000000000
H       7.037540000000000     -1.180760000000000      2.489470000000000
H       6.839300000000000     -2.910820000000000      2.196580000000000
C       5.597640000000000     -1.643430000000000      0.952570000000000
H       5.401250000000000     -2.448790000000000      0.220480000000000
H       4.744830000000000     -1.657250000000000      1.648870000000000
