17

Kr     -0.393870000000000     -0.089000000000000     -0.292330000000000
H      -0.537670000000000     -1.183430000000000     -2.899230000000000
C      -1.254930000000000     -1.544190000000000     -2.165260000000000
C      -2.677650000000000     -1.409040000000000     -2.178930000000000
C      -0.962770000000000     -2.483320000000000     -1.175360000000000
C      -3.148460000000000     -2.237680000000000     -1.198520000000000
H      -3.280300000000000     -0.762290000000000     -2.811650000000000
O      -2.125830000000000     -2.901080000000000     -0.599420000000000
C       0.203250000000000     -3.391180000000000     -1.006680000000000
C      -4.456560000000000     -2.420780000000000     -0.691980000000000
H       1.106740000000000     -2.826770000000000     -1.264390000000000
C       0.070220000000000     -4.647730000000000     -1.863600000000000
H       0.282400000000000     -3.661990000000000      0.055080000000000
N      -5.540290000000000     -2.541170000000000     -0.292190000000000
H       0.931260000000000     -5.314350000000000     -1.704440000000000
H       0.032500000000000     -4.392310000000000     -2.933480000000000
H      -0.843720000000000     -5.208380000000000     -1.616000000000000
