16

Kr      0.062320000000000      0.092820000000000      0.104650000000000
H      -0.147110000000000      1.301400000000000     -2.492780000000000
C      -1.064970000000000      1.468900000000000     -1.926790000000000
C      -1.398940000000000      2.767880000000000     -1.499480000000000
C      -1.948590000000000      0.391490000000000     -1.755980000000000
C      -2.626070000000000      2.929760000000000     -0.870330000000000
C      -0.484160000000000      3.930860000000000     -1.703680000000000
C      -3.195380000000000      0.629620000000000     -1.158790000000000
H      -1.686280000000000     -0.574300000000000     -2.187260000000000
F      -2.962730000000000      4.145250000000000     -0.421990000000000
C      -3.540430000000000      1.891100000000000     -0.695110000000000
I      -4.596840000000000     -0.932310000000000     -1.016580000000000
H      -4.498140000000000      2.099450000000000     -0.217610000000000
H       0.457650000000000      3.597680000000000     -2.157400000000000
H      -0.252990000000000      4.424480000000000     -0.747800000000000
H      -0.943640000000000      4.691680000000000     -2.354280000000000
