21

Kr      0.231780000000000     -0.227340000000000     -0.306840000000000
H      -0.174060000000000     -0.036120000000000     -3.304450000000000
C       0.875520000000000     -0.188420000000000     -3.053400000000000
C       1.507820000000000     -1.384300000000000     -3.413740000000000
C       1.609850000000000      0.829000000000000     -2.428200000000000
C       2.853260000000000     -1.570010000000000     -3.120190000000000
H       0.933550000000000     -2.166260000000000     -3.915050000000000
C       2.970440000000000      0.643120000000000     -2.124680000000000
H       1.158600000000000      1.806000000000000     -2.259960000000000
C       3.573870000000000     -0.567620000000000     -2.464540000000000
H       3.350570000000000     -2.504770000000000     -3.391550000000000
C       3.777090000000000      1.720100000000000     -1.448900000000000
H       4.630390000000000     -0.725580000000000     -2.226890000000000
H       4.292090000000000      1.258670000000000     -0.571550000000000
N       3.016060000000000      2.884640000000000     -1.099750000000000
H       4.595890000000000      2.024950000000000     -2.128960000000000
H       2.146970000000000      2.654330000000000     -0.614930000000000
C       3.766810000000000      3.873760000000000     -0.381200000000000
H       3.114440000000000      4.716100000000000     -0.105850000000000
H       4.576160000000000      4.279160000000000     -1.012770000000000
H       4.245770000000000      3.496280000000000      0.551510000000000
