24

Kr     -0.053210000000000      0.294210000000000     -0.058850000000000
H      -0.400210000000000      1.252210000000000     -2.704940000000000
C      -1.303600000000000      1.392930000000000     -2.106390000000000
C      -1.745640000000000      2.685310000000000     -1.744720000000000
C      -2.138580000000000      0.290180000000000     -1.826350000000000
C      -2.949750000000000      2.847840000000000     -1.062360000000000
C      -0.962410000000000      3.834380000000000     -2.079260000000000
C      -1.832060000000000     -0.981450000000000     -2.420120000000000
C      -3.393180000000000      0.456300000000000     -1.169810000000000
C      -3.750730000000000      1.740780000000000     -0.775230000000000
H      -3.272380000000000      3.849080000000000     -0.771580000000000
N      -0.341220000000000      4.778110000000000     -2.342660000000000
N      -1.674950000000000     -1.993120000000000     -2.965270000000000
C      -4.320550000000000     -0.724990000000000     -1.007020000000000
H      -4.695710000000000      1.896770000000000     -0.253650000000000
H      -3.673200000000000     -1.596760000000000     -0.831140000000000
C      -5.259710000000000     -0.610540000000000      0.185780000000000
H      -5.818910000000000     -1.550000000000000      0.307230000000000
H      -4.706950000000000     -0.427460000000000      1.117760000000000
H      -6.003160000000000      0.192450000000000      0.056630000000000
C      -5.105870000000000     -0.951580000000000     -2.303310000000000
H      -4.438320000000000     -1.100870000000000     -3.163770000000000
H      -5.737330000000000     -1.848650000000000     -2.211640000000000
H      -5.761050000000000     -0.092600000000000     -2.519720000000000
