18

Kr      0.354050000000000      0.150330000000000     -0.454330000000000
H      -0.679940000000000      1.084480000000000     -3.053520000000000
C      -0.122760000000000      1.839320000000000     -2.502320000000000
C       1.243430000000000      1.923370000000000     -2.207710000000000
N      -0.719770000000000      2.994290000000000     -2.098410000000000
C       1.437050000000000      3.191720000000000     -1.576750000000000
H       2.009040000000000      1.245280000000000     -2.574480000000000
C       0.212080000000000      3.820950000000000     -1.518250000000000
C      -2.140080000000000      3.233280000000000     -2.130070000000000
O       2.578730000000000      3.719330000000000     -1.076830000000000
H      -0.056330000000000      4.780090000000000     -1.084530000000000
H      -2.629000000000000      2.758830000000000     -1.265950000000000
H      -2.562560000000000      2.815810000000000     -3.054170000000000
H      -2.328300000000000      4.315540000000000     -2.121380000000000
C       3.773800000000000      3.197580000000000     -1.580770000000000
H       3.913740000000000      2.137260000000000     -1.305300000000000
H       3.824400000000000      3.281920000000000     -2.681790000000000
H       4.593220000000000      3.780820000000000     -1.139650000000000
