19

Kr     -0.351890000000000     -0.349470000000000     -0.547660000000000
H       1.066300000000000      0.121780000000000     -2.990700000000000
C       1.301430000000000     -0.837490000000000     -2.530500000000000
C       0.435190000000000     -1.941730000000000     -2.550700000000000
C       2.578520000000000     -1.077340000000000     -2.008450000000000
C       0.840160000000000     -3.202830000000000     -2.049910000000000
H      -0.530440000000000     -1.853450000000000     -3.050880000000000
O       3.572350000000000     -0.172020000000000     -1.911180000000000
C       3.007580000000000     -2.319940000000000     -1.523840000000000
C       2.109050000000000     -3.403540000000000     -1.537540000000000
H       0.131060000000000     -4.032890000000000     -2.081570000000000
C       4.642870000000000     -0.797640000000000     -1.350870000000000
C       4.367500000000000     -2.109650000000000     -1.105240000000000
H       2.409310000000000     -4.381850000000000     -1.155830000000000
C       5.835050000000000      0.043460000000000     -1.112980000000000
H       5.052630000000000     -2.834180000000000     -0.670950000000000
H       5.597520000000000      0.852770000000000     -0.404340000000000
H       6.183520000000000      0.512070000000000     -2.046790000000000
H       6.650310000000000     -0.560310000000000     -0.694950000000000
