18

Kr     -0.127360000000000     -0.227260000000000      0.149820000000000
H      -0.643280000000000     -0.066130000000000      2.927560000000000
C      -1.562690000000000      0.078810000000000      2.355790000000000
C      -2.549160000000000     -0.910420000000000      2.310670000000000
C      -1.856410000000000      1.303900000000000      1.742700000000000
C      -3.764870000000000     -0.719520000000000      1.689120000000000
F      -2.312570000000000     -2.083130000000000      2.899170000000000
C      -3.091260000000000      1.512640000000000      1.111960000000000
H      -1.141560000000000      2.125020000000000      1.809210000000000
C      -4.073040000000000      0.509970000000000      1.066250000000000
H      -4.499530000000000     -1.527270000000000      1.700230000000000
Cl     -3.331410000000000      3.023390000000000      0.287280000000000
N      -5.288540000000000      0.645300000000000      0.406180000000000
H      -5.748290000000000     -0.254260000000000      0.327870000000000
C      -6.227870000000000      1.689940000000000      0.760730000000000
H      -7.095460000000000      1.628650000000000      0.088210000000000
H      -5.776030000000000      2.680170000000000      0.628940000000000
H      -6.589440000000000      1.614700000000000      1.804600000000000
