20

Kr     -0.131940000000000     -0.241350000000000     -0.185590000000000
H      -0.398720000000000      1.566050000000000     -2.324740000000000
C      -1.139250000000000      0.918600000000000     -1.858720000000000
O      -2.307390000000000      1.556090000000000     -1.469330000000000
C      -1.404280000000000     -0.437970000000000     -2.130690000000000
C      -3.292000000000000      0.616580000000000     -1.421510000000000
C      -2.810440000000000     -0.636310000000000     -1.847210000000000
H      -0.798270000000000     -1.064020000000000     -2.781310000000000
C      -4.603770000000000      0.787140000000000     -0.968020000000000
C      -3.648180000000000     -1.754500000000000     -1.867140000000000
C      -5.430220000000000     -0.345990000000000     -1.005950000000000
O      -5.149360000000000      1.919130000000000     -0.478760000000000
C      -4.966610000000000     -1.585600000000000     -1.449320000000000
H      -3.274080000000000     -2.726100000000000     -2.194730000000000
H      -6.461130000000000     -0.215870000000000     -0.671460000000000
H      -5.654850000000000     -2.434170000000000     -1.460310000000000
C      -4.478550000000000      3.146080000000000     -0.637300000000000
H      -3.542580000000000      3.182250000000000     -0.060410000000000
H      -4.241500000000000      3.345030000000000     -1.694750000000000
H      -5.164670000000000      3.920430000000000     -0.269660000000000
