25

Kr     -0.278680000000000     -0.268900000000000     -0.094390000000000
H       0.440750000000000     -0.767350000000000     -2.815570000000000
C       1.262620000000000     -0.303770000000000     -2.269520000000000
C       2.444960000000000     -0.995110000000000     -1.984610000000000
C       1.195860000000000      1.079690000000000     -1.970050000000000
Cl      2.606070000000000     -2.670900000000000     -2.383770000000000
C       3.501960000000000     -0.317380000000000     -1.383260000000000
N       2.208400000000000      1.777770000000000     -1.437610000000000
H       0.311260000000000      1.642440000000000     -2.274700000000000
C       3.286480000000000      1.076710000000000     -1.152920000000000
C       4.828180000000000     -0.615910000000000     -0.938540000000000
N       4.439820000000000      1.568510000000000     -0.600130000000000
C       5.372460000000000      0.558070000000000     -0.472420000000000
H       5.327450000000000     -1.581060000000000     -0.971470000000000
H       4.564630000000000      2.538500000000000     -0.346190000000000
C       6.744320000000000      0.826840000000000      0.064230000000000
C       7.515500000000000      1.790680000000000     -0.840650000000000
H       8.545999999999999      1.925600000000000     -0.477980000000000
H       7.265330000000000     -0.144060000000000      0.050120000000000
H       7.558070000000000      1.416980000000000     -1.873880000000000
H       7.041870000000000      2.785580000000000     -0.863700000000000
C       6.711070000000000      1.324480000000000      1.509960000000000
H       6.207850000000000      0.600950000000000      2.166430000000000
H       7.731600000000000      1.484720000000000      1.889830000000000
H       6.175030000000000      2.284030000000000      1.594220000000000
