17

Kr     -0.212760000000000     -0.031810000000000      0.013010000000000
H      -1.163280000000000     -0.325660000000000      2.725000000000000
C      -1.808220000000000      0.339810000000000      2.147820000000000
C      -3.113890000000000     -0.092110000000000      1.836000000000000
C      -1.372590000000000      1.633800000000000      1.841550000000000
C      -3.952450000000000      0.802680000000000      1.172480000000000
O      -3.411260000000000     -1.361840000000000      2.168810000000000
C      -2.272970000000000      2.517440000000000      1.222120000000000
H      -0.394330000000000      1.976230000000000      2.179160000000000
F      -5.178570000000000      0.430350000000000      0.769890000000000
C      -3.550040000000000      2.106900000000000      0.883960000000000
Cl     -1.784280000000000      4.135560000000000      0.847480000000000
H      -4.246590000000000      2.771710000000000      0.372980000000000
C      -4.746420000000000     -1.785490000000000      2.306150000000000
H      -5.328690000000000     -1.089430000000000      2.931730000000000
H      -5.246530000000000     -1.897700000000000      1.332910000000000
H      -4.703710000000000     -2.763810000000000      2.802520000000000
