15

Kr      0.303550000000000     -0.275430000000000     -0.357310000000000
H      -0.119850000000000      1.240220000000000     -2.633920000000000
C       0.844020000000000      0.852750000000000     -2.300440000000000
C       1.190360000000000     -0.515730000000000     -2.516450000000000
N       1.842330000000000      1.777170000000000     -2.117870000000000
C       2.566570000000000     -0.858150000000000     -2.433190000000000
H       0.480190000000000     -1.202940000000000     -2.977440000000000
C       3.061910000000000      1.317430000000000     -2.035000000000000
N       3.494960000000000      0.042680000000000     -2.163720000000000
C       3.015630000000000     -2.261520000000000     -2.688390000000000
C       4.099400000000000      2.298270000000000     -1.766640000000000
N       4.920170000000000      3.075520000000000     -1.514620000000000
H       3.107000000000000     -2.428320000000000     -3.774580000000000
H       2.294980000000000     -2.994650000000000     -2.300180000000000
H       4.003090000000000     -2.424400000000000     -2.238280000000000
