16

Kr      0.313710000000000      0.015570000000000     -0.057930000000000
H       0.861940000000000     -2.918890000000000      2.211150000000000
C       1.489450000000000     -2.777610000000000      1.327880000000000
N       2.761440000000000     -2.466410000000000      1.511660000000000
C       0.913930000000000     -2.920320000000000      0.052040000000000
C       3.508260000000000     -2.252210000000000      0.423190000000000
C       1.677090000000000     -2.670420000000000     -1.101030000000000
Br     -0.816530000000000     -3.637110000000000     -0.075060000000000
C       3.015990000000000     -2.322600000000000     -0.879580000000000
C       4.891210000000000     -1.905560000000000      0.635870000000000
C       1.122350000000000     -2.809770000000000     -2.477940000000000
H       3.673910000000000     -2.117660000000000     -1.726100000000000
N       6.001690000000000     -1.604960000000000      0.775210000000000
H       1.877860000000000     -2.559480000000000     -3.233810000000000
H       0.254260000000000     -2.144110000000000     -2.603590000000000
H       0.771890000000000     -3.839590000000000     -2.649590000000000
