16

Kr     -0.448800000000000     -0.329620000000000     -0.566200000000000
H       1.028840000000000      0.210960000000000     -2.949170000000000
C       1.228910000000000     -0.765520000000000     -2.509550000000000
C       0.350080000000000     -1.856640000000000     -2.595530000000000
C       2.482160000000000     -1.045500000000000     -1.951570000000000
C       0.722570000000000     -3.140840000000000     -2.126340000000000
H      -0.595950000000000     -1.739170000000000     -3.126010000000000
O       3.481840000000000     -0.150620000000000     -1.780920000000000
C       2.880210000000000     -2.308740000000000     -1.496230000000000
C       1.969420000000000     -3.380040000000000     -1.580060000000000
H       0.003450000000000     -3.958380000000000     -2.210800000000000
C       4.499100000000000     -0.820280000000000     -1.204870000000000
C       4.224250000000000     -2.138110000000000     -1.011900000000000
H       2.243520000000000     -4.374850000000000     -1.223090000000000
Cl      5.876030000000000      0.097830000000000     -0.833750000000000
H       4.890020000000000     -2.876590000000000     -0.574460000000000
