17

Kr      0.412190000000000     -0.015800000000000     -0.272980000000000
H       0.912390000000000     -0.259510000000000     -3.081100000000000
C       1.533370000000000      0.453370000000000     -2.542620000000000
N       2.899990000000000      0.348190000000000     -2.476380000000000
C       1.198180000000000      1.724830000000000     -2.074890000000000
C       3.449170000000000      1.493710000000000     -1.950310000000000
H       3.422230000000000     -0.484970000000000     -2.704710000000000
C       2.420770000000000      2.382800000000000     -1.704110000000000
H       0.216920000000000      2.185400000000000     -2.169600000000000
C       4.909400000000000      1.599620000000000     -1.689510000000000
C       2.531240000000000      3.752170000000000     -1.126310000000000
H       5.213150000000000      1.028140000000000     -0.795510000000000
H       5.194090000000000      2.646340000000000     -1.519960000000000
H       5.502150000000000      1.228230000000000     -2.541410000000000
H       2.112080000000000      3.792850000000000     -0.108540000000000
H       1.974280000000000      4.488380000000000     -1.727430000000000
H       3.575940000000000      4.091020000000000     -1.070820000000000
