30

Kr     -0.201500000000000     -0.259330000000000     -0.090880000000000
H       0.436610000000000      0.611980000000000     -2.714850000000000
C       1.291010000000000      0.179260000000000     -2.198980000000000
C       1.487830000000000     -1.169040000000000     -1.911690000000000
C       2.506520000000000      0.844290000000000     -1.850380000000000
N       2.765570000000000     -1.328110000000000     -1.423460000000000
H       0.877290000000000     -2.034190000000000     -2.161480000000000
C       3.394090000000000     -0.098670000000000     -1.374880000000000
H       2.690280000000000      1.913590000000000     -1.919110000000000
C       3.346340000000000     -2.604300000000000     -1.103730000000000
C       4.783770000000000      0.069220000000000     -0.845170000000000
H       3.917070000000000     -3.022250000000000     -1.950140000000000
H       2.549000000000000     -3.311210000000000     -0.840770000000000
H       4.019050000000000     -2.519860000000000     -0.239260000000000
H       4.853880000000000     -0.494460000000000      0.107230000000000
C       5.095340000000000      1.530230000000000     -0.518150000000000
H       4.328730000000000      1.928720000000000      0.161800000000000
H       5.031830000000000      2.122710000000000     -1.448090000000000
C       6.485130000000000      1.687140000000000      0.085280000000000
H       6.687970000000000      2.749190000000000      0.298770000000000
H       6.516390000000000      1.164130000000000      1.059090000000000
C       7.561230000000000      1.114120000000000     -0.830290000000000
H       8.554190000000000      1.193150000000000     -0.358530000000000
H       7.606640000000000      1.719100000000000     -1.753800000000000
C       7.259930000000000     -0.333930000000000     -1.199320000000000
H       7.338750000000000     -0.963180000000000     -0.293540000000000
H       8.013840000000000     -0.716290000000000     -1.906420000000000
C       5.862250000000000     -0.485900000000000     -1.789750000000000
H       5.793380000000000      0.062160000000000     -2.745970000000000
H       5.665860000000000     -1.542470000000000     -2.027720000000000
