17

Kr     -0.201960000000000      0.166770000000000     -0.380700000000000
H      -0.219790000000000     -1.199100000000000     -2.902570000000000
C      -1.092620000000000     -1.437050000000000     -2.296850000000000
C      -2.221440000000000     -0.686260000000000     -1.979250000000000
N      -1.300450000000000     -2.719540000000000     -1.847500000000000
C      -3.113210000000000     -1.559840000000000     -1.291890000000000
H      -2.439620000000000      0.323450000000000     -2.315040000000000
C      -2.504980000000000     -2.797600000000000     -1.224940000000000
C      -0.322230000000000     -3.776610000000000     -1.940400000000000
C      -4.463900000000000     -1.228470000000000     -0.780460000000000
H      -2.843920000000000     -3.719490000000000     -0.757460000000000
H       0.067840000000000     -3.835550000000000     -2.966060000000000
H      -0.800840000000000     -4.733030000000000     -1.693520000000000
H       0.504490000000000     -3.583800000000000     -1.241340000000000
F      -4.660290000000000     -1.680780000000000      0.470600000000000
F      -5.449620000000000     -1.759680000000000     -1.521720000000000
F      -4.671040000000000      0.096440000000000     -0.762060000000000
