17

Kr     -0.074520000000000     -0.240550000000000      0.085740000000000
H      -0.811810000000000     -0.204750000000000      2.901300000000000
C      -1.691070000000000      0.038980000000000      2.301820000000000
C      -2.773130000000000     -0.849680000000000      2.214820000000000
C      -1.757540000000000      1.293190000000000      1.680360000000000
C      -3.888590000000000     -0.485670000000000      1.491290000000000
H      -2.742530000000000     -1.834060000000000      2.684740000000000
C      -2.927900000000000      1.650250000000000      0.991830000000000
H      -0.956960000000000      2.021870000000000      1.810360000000000
F      -4.907000000000000     -1.339840000000000      1.351190000000000
C      -4.001020000000000      0.768570000000000      0.864730000000000
Cl     -3.066120000000000      3.204330000000000      0.252370000000000
O      -5.090880000000000      1.081880000000000      0.131360000000000
C      -6.256870000000000      1.380950000000000      0.869740000000000
H      -6.582400000000000      0.521830000000000      1.478910000000000
H      -6.096280000000000      2.253890000000000      1.524720000000000
H      -7.041710000000000      1.620890000000000      0.140700000000000
