25

Kr      0.117110000000000      0.354810000000000     -0.182330000000000
H      -0.699820000000000     -0.676190000000000     -2.830540000000000
C      -1.585770000000000     -0.526500000000000     -2.209510000000000
C      -2.338630000000000      0.644950000000000     -2.268410000000000
C      -2.105480000000000     -1.549820000000000     -1.404940000000000
C      -3.493640000000000      0.845060000000000     -1.525720000000000
F      -1.948970000000000      1.616660000000000     -3.095890000000000
Br     -1.309860000000000     -3.255010000000000     -1.473310000000000
C      -3.263390000000000     -1.379070000000000     -0.649420000000000
C      -3.972200000000000     -0.172350000000000     -0.692850000000000
H      -4.005490000000000      1.800570000000000     -1.629460000000000
H      -3.618170000000000     -2.211740000000000     -0.043910000000000
C      -5.285970000000000     -0.030730000000000      0.079140000000000
C      -5.717610000000000      1.432710000000000      0.196810000000000
H      -6.633420000000000      1.501810000000000      0.803320000000000
H      -4.942360000000000      2.045370000000000      0.681200000000000
H      -5.945510000000000      1.875810000000000     -0.784060000000000
C      -6.368280000000000     -0.808300000000000     -0.686470000000000
H      -6.108420000000000     -1.874220000000000     -0.770510000000000
H      -7.337450000000000     -0.731910000000000     -0.167710000000000
H      -6.490830000000000     -0.411190000000000     -1.705650000000000
C      -5.151950000000000     -0.611360000000000      1.492500000000000
H      -6.093770000000000     -0.472610000000000      2.045600000000000
H      -4.936040000000000     -1.689020000000000      1.481570000000000
H      -4.346540000000000     -0.114760000000000      2.051650000000000
