15
Properties=species:S:1:pos:R:3 RH.log=T Energy:=T -133282.4528941=T pbc="F F F"
N       -1.56968000      -0.96023000      -0.01495000
H       -1.43355000      -1.24377000      -0.98383000
H       -2.52196000      -1.21688000       0.23385000
C       -1.36343000       0.46457000       0.12981000
H       -2.08419000       1.09931000      -0.43067000
H       -1.49837000       0.72433000       1.19518000
C        0.04540000       0.86462000      -0.29460000
H        0.15661000       1.95057000      -0.12032000
H        0.16721000       0.71759000      -1.38270000
C        1.12561000       0.12994000       0.43493000
C        2.17898000      -0.45677000      -0.13302000
H        2.94317000      -0.96264000       0.46271000
H        2.31524000      -0.45668000      -1.21982000
H        1.02422000       0.09569000       1.52757000
C        0.55927614      -0.74073692       0.90664649
