23
Properties=species:S:1:pos:R:3 RH_Sub13_O.log=T Energy:=T -406441.3199206=T pbc="F F F"
O       -3.02228000       1.13191000       0.37363000
H       -2.87447000       0.93011000       1.30119000
C       -3.28064000      -0.07290000      -0.31583000
H       -3.87756000      -0.76372000       0.31158000
H       -3.91793000       0.19343000      -1.17480000
C        0.58835000       0.53192000       0.24105000
C        1.96169000       0.00123000      -0.05980000
C        0.21819000       1.72873000      -0.21922000
H        0.89890000       2.34429000      -0.81048000
C       -2.04319000      -0.79091000      -0.83472000
H       -1.48331000      -0.10528000      -1.49258000
H       -2.39740000      -1.60975000      -1.48424000
C       -0.29879000      -0.37845000       1.04757000
H       -0.97107000       0.24996000       1.64785000
H        0.32087000      -0.93462000       1.76868000
C       -1.10625000      -1.38454000       0.21220000
H       -1.68589000      -2.01937000       0.90631000
H       -0.39756000      -2.05898000      -0.29272000
H       -0.79224000       2.09843000      -0.02441000
F        2.70520000       0.84166000      -0.77760000
F        1.89475000      -1.15404000      -0.74379000
F        2.63558000      -0.26432000       1.06883000
C       -0.60573579       1.48908141      -0.96929620
