22

C       0.140670000000000     -1.233880000000000      1.148500000000000
C      -0.589110000000000     -0.504480000000000      2.144550000000000
C      -0.293610000000000     -1.677370000000000     -0.121690000000000
C      -1.867790000000000      0.000810000000000      2.136250000000000
H       0.000320000000000     -0.299780000000000      3.043240000000000
C      -1.577010000000000     -1.526160000000000     -0.700200000000000
H       0.400320000000000     -2.332270000000000     -0.657190000000000
C      -2.826210000000000     -0.158970000000000      1.086450000000000
C      -2.333800000000000      0.806560000000000      3.317930000000000
C      -2.732460000000000     -0.800970000000000     -0.119900000000000
C      -1.987460000000000     -2.030600000000000     -1.922560000000000
H      -3.800480000000000      0.303020000000000      1.284270000000000
C      -3.798140000000000     -0.913420000000000     -1.067950000000000
C      -3.346900000000000     -1.652650000000000     -2.142530000000000
H      -1.366440000000000     -2.613800000000000     -2.602690000000000
H      -4.791440000000000     -0.484830000000000     -0.937830000000000
H      -3.931470000000000     -1.913120000000000     -3.025750000000000
H       1.100090000000000     -1.621230000000000      1.497860000000000
Kr      0.829740000000000      0.254780000000000     -0.265640000000000
H      -3.265240000000000      0.396570000000000      3.739740000000000
H      -2.545590000000000      1.844260000000000      3.012480000000000
H      -1.579200000000000      0.836610000000000      4.114600000000000
