15

C      -0.146300000000000     -0.975230000000000     -1.174060000000000
C       1.177120000000000     -0.514910000000000     -1.357520000000000
C      -0.389420000000000     -1.645690000000000      0.051700000000000
C       2.171780000000000     -0.681790000000000     -0.406000000000000
O       1.659210000000000      0.150210000000000     -2.413030000000000
C       0.656030000000000     -1.827370000000000      1.018980000000000
H      -1.321340000000000     -2.197270000000000      0.190130000000000
C       1.927270000000000     -1.348850000000000      0.813240000000000
C       3.283540000000000     -0.030700000000000     -1.024210000000000
N       2.976100000000000      0.449030000000000     -2.196750000000000
Cl      0.258650000000000     -2.664850000000000      2.473560000000000
H       2.712300000000000     -1.477040000000000      1.558960000000000
Cl      4.844360000000000      0.139010000000000     -0.373630000000000
H      -0.897220000000000     -0.951040000000000     -1.973390000000000
Kr     -1.157400000000000      0.418460000000000      0.240760000000000
