28

C       0.184670000000000     -0.001020000000000     -1.392730000000000
C      -1.117170000000000      0.274460000000000     -0.957320000000000
C       1.117590000000000      1.067670000000000     -1.289430000000000
C      -1.520400000000000      1.509930000000000     -0.441720000000000
O      -2.147280000000000     -0.595230000000000     -0.939690000000000
C       0.696940000000000      2.340450000000000     -0.785400000000000
H       2.082050000000000      1.000250000000000     -1.795730000000000
C      -0.589100000000000      2.571130000000000     -0.356410000000000
C      -2.899560000000000      1.344090000000000     -0.095870000000000
C      -3.221400000000000      0.053720000000000     -0.415910000000000
Cl      1.876510000000000      3.602620000000000     -0.717390000000000
H      -0.871600000000000      3.546420000000000      0.041390000000000
H      -3.565360000000000      2.082830000000000      0.340820000000000
C      -4.479120000000000     -0.752110000000000     -0.295550000000000
H       0.448990000000000     -0.944300000000000     -1.882410000000000
Kr      1.531120000000000     -0.243850000000000      0.423840000000000
C      -5.585560000000000      0.116470000000000      0.300020000000000
H      -6.511830000000000     -0.469820000000000      0.392280000000000
H      -5.315670000000000      0.479440000000000      1.303400000000000
H      -5.800400000000000      0.987500000000000     -0.337570000000000
C      -4.889800000000000     -1.245220000000000     -1.690760000000000
H      -4.094600000000000     -1.855030000000000     -2.142960000000000
H      -5.799200000000000     -1.861500000000000     -1.620150000000000
H      -5.098580000000000     -0.399220000000000     -2.363040000000000
C      -4.203850000000000     -1.954840000000000      0.619770000000000
H      -5.109240000000000     -2.574300000000000      0.711660000000000
H      -3.396060000000000     -2.581410000000000      0.215180000000000
H      -3.908420000000000     -1.623300000000000      1.626800000000000
