35

C      -0.153180000000000     -0.708510000000000      1.030900000000000
C      -1.445700000000000     -1.277030000000000      1.157780000000000
C       0.674800000000000     -1.053240000000000     -0.078290000000000
C      -1.937140000000000     -2.170370000000000      0.197010000000000
S      -2.586410000000000     -0.997080000000000      2.421900000000000
C       0.145360000000000     -1.952490000000000     -1.081420000000000
C       2.151180000000000     -0.727970000000000      0.061370000000000
C      -1.114950000000000     -2.484830000000000     -0.912630000000000
C      -3.255350000000000     -2.623240000000000      0.519190000000000
C      -3.713830000000000     -2.077670000000000      1.683250000000000
C       0.907020000000000     -2.296590000000000     -2.328100000000000
H      -1.505600000000000     -3.165210000000000     -1.673820000000000
H      -3.830110000000000     -3.319810000000000     -0.091970000000000
H      -4.678740000000000     -2.249250000000000      2.159650000000000
H       0.284930000000000     -0.197220000000000      1.889050000000000
Kr     -0.420080000000000      0.941580000000000     -0.380090000000000
H       1.921120000000000     -2.665250000000000     -2.120300000000000
H       1.006280000000000     -1.415880000000000     -2.981310000000000
H       0.376340000000000     -3.072820000000000     -2.895740000000000
H       2.204250000000000     -0.007720000000000      0.893050000000000
C       2.832100000000000     -0.020990000000000     -1.114000000000000
H       2.252070000000000      0.874010000000000     -1.387500000000000
H       2.864310000000000     -0.671650000000000     -2.000740000000000
C       4.257790000000000      0.366990000000000     -0.738180000000000
H       4.748610000000000      0.868090000000000     -1.587820000000000
H       4.222840000000000      1.107100000000000      0.081090000000000
C       5.067190000000000     -0.847710000000000     -0.296560000000000
H       6.086390000000000     -0.547470000000000     -0.004040000000000
H       5.181440000000000     -1.536800000000000     -1.153500000000000
C       4.384750000000000     -1.585280000000000      0.850480000000000
H       4.378180000000000     -0.935740000000000      1.744280000000000
H       4.956540000000000     -2.486170000000000      1.126320000000000
C       2.947630000000000     -1.963740000000000      0.506000000000000
H       2.948060000000000     -2.724180000000000     -0.294000000000000
H       2.454180000000000     -2.429250000000000      1.374610000000000
