25

C       0.390420000000000     -1.201650000000000      1.108990000000000
C      -0.717330000000000     -0.658170000000000      1.776880000000000
C       0.173180000000000     -1.538070000000000     -0.250110000000000
C      -1.955500000000000     -0.419400000000000      1.174890000000000
O      -0.728890000000000     -0.270860000000000      3.067220000000000
C      -1.102580000000000     -1.315450000000000     -0.860610000000000
H       0.901910000000000     -2.151340000000000     -0.782730000000000
C      -2.174540000000000     -0.740450000000000     -0.200460000000000
C      -2.760040000000000      0.164580000000000      2.213230000000000
C      -1.961260000000000      0.219880000000000      3.314280000000000
Cl     -1.211620000000000     -1.785120000000000     -2.529910000000000
C      -3.482540000000000     -0.427350000000000     -0.884840000000000
H      -3.790850000000000      0.501580000000000      2.162420000000000
H      -2.135690000000000      0.573910000000000      4.327390000000000
H       1.313690000000000     -1.467150000000000      1.634270000000000
Kr      1.250260000000000      0.380780000000000     -0.252310000000000
H      -3.374390000000000     -0.763220000000000     -1.925790000000000
C      -4.652240000000000     -1.206230000000000     -0.283300000000000
H      -5.573070000000000     -1.003360000000000     -0.851260000000000
H      -4.464250000000000     -2.289560000000000     -0.318100000000000
H      -4.842160000000000     -0.934630000000000      0.765470000000000
C      -3.731310000000000      1.082060000000000     -0.924720000000000
H      -2.868110000000000      1.607070000000000     -1.358170000000000
H      -4.621030000000000      1.303190000000000     -1.534070000000000
H      -3.898210000000000      1.501380000000000      0.078380000000000
