27

C      -0.139270000000000     -1.058360000000000      1.085830000000000
C       0.880340000000000     -1.332090000000000      0.133390000000000
C       0.080800000000000     -0.215970000000000      2.225240000000000
C       2.106560000000000     -0.669210000000000      0.362600000000000
C       0.696190000000000     -2.327470000000000     -1.008300000000000
C       1.294710000000000      0.396560000000000      2.450640000000000
H      -0.765220000000000     -0.074820000000000      2.899860000000000
C       2.280800000000000      0.149850000000000      1.489460000000000
C       3.380290000000000     -0.546690000000000     -0.289070000000000
H       1.478910000000000      1.052070000000000      3.301320000000000
O       3.508890000000000      0.666710000000000      1.485710000000000
H       3.736490000000000     -0.994440000000000     -1.215270000000000
N       4.186550000000000      0.227000000000000      0.371530000000000
H      -1.039000000000000     -1.670540000000000      1.095580000000000
Kr     -0.826940000000000      0.616660000000000     -0.154360000000000
C       1.765850000000000     -3.425130000000000     -0.877260000000000
H       1.621950000000000     -4.175720000000000     -1.669290000000000
H       2.788590000000000     -3.035090000000000     -0.967790000000000
H       1.686530000000000     -3.937330000000000      0.093590000000000
C      -0.680010000000000     -2.994720000000000     -0.972820000000000
H      -1.494260000000000     -2.258650000000000     -1.039120000000000
H      -0.769250000000000     -3.682210000000000     -1.826990000000000
H      -0.818570000000000     -3.589400000000000     -0.056710000000000
C       0.847520000000000     -1.596850000000000     -2.351650000000000
H       0.783370000000000     -2.318430000000000     -3.180450000000000
H       0.043920000000000     -0.855040000000000     -2.479960000000000
H       1.806090000000000     -1.066380000000000     -2.436640000000000
