22

C       0.096550000000000      0.688790000000000     -1.038930000000000
C       1.465430000000000      0.290580000000000     -0.781810000000000
C      -0.530740000000000     -0.173080000000000     -1.955120000000000
C       1.836520000000000     -0.839670000000000     -1.541700000000000
C       2.391230000000000      0.842350000000000      0.124170000000000
H      -1.446060000000000      0.049200000000000     -2.506290000000000
S       0.536980000000000     -1.409740000000000     -2.560960000000000
C       3.104190000000000     -1.413680000000000     -1.435770000000000
C       3.655350000000000      0.277420000000000      0.218860000000000
C       2.004270000000000      2.015630000000000      1.001300000000000
C       4.009130000000000     -0.834920000000000     -0.558200000000000
H       3.374370000000000     -2.292290000000000     -2.024350000000000
H       4.371200000000000      0.699830000000000      0.924400000000000
H       5.010330000000000     -1.260220000000000     -0.459450000000000
H      -0.366880000000000      1.637220000000000     -0.736290000000000
Kr     -1.270210000000000     -0.602400000000000      0.039540000000000
F       2.941870000000000      2.165600000000000      1.976700000000000
F       0.839210000000000      1.711020000000000      1.639660000000000
C       1.848420000000000      3.333040000000000      0.284190000000000
H       1.564740000000000      4.098160000000000      1.019700000000000
H       1.066350000000000      3.272430000000000     -0.482190000000000
H       2.799050000000000      3.611880000000000     -0.188790000000000
