15

C       0.021790000000000     -1.525340000000000      0.173290000000000
C       0.373120000000000     -1.165250000000000     -1.151080000000000
C       1.011150000000000     -1.486150000000000      1.213640000000000
C       1.715080000000000     -0.767900000000000     -1.391890000000000
H      -0.315830000000000     -1.370080000000000     -1.973010000000000
C       2.307600000000000     -1.088770000000000      0.987060000000000
Cl      0.518190000000000     -1.948530000000000      2.795010000000000
C       2.619440000000000     -0.725220000000000     -0.335710000000000
C       2.506810000000000     -0.337670000000000     -2.498180000000000
H       3.049850000000000     -1.051280000000000      1.783620000000000
O       3.806390000000000     -0.309260000000000     -0.778020000000000
H       2.225050000000000     -0.211150000000000     -3.543240000000000
N       3.727480000000000     -0.070380000000000     -2.129520000000000
H      -0.948290000000000     -1.982550000000000      0.395170000000000
Kr     -0.702990000000000      0.526000000000000     -0.197870000000000
