32

C      -0.816470000000000     -1.159000000000000      0.606170000000000
C       0.483170000000000     -0.610700000000000      0.941990000000000
C      -1.686730000000000     -0.618010000000000      1.578220000000000
C       0.282480000000000      0.202360000000000      2.064970000000000
C       1.754080000000000     -0.710310000000000      0.374830000000000
Cl     -3.183390000000000     -1.198940000000000      2.145780000000000
O      -1.027170000000000      0.176020000000000      2.456760000000000
C       1.297690000000000      0.932930000000000      2.655580000000000
C       2.809150000000000      0.001640000000000      0.949870000000000
H       1.906260000000000     -1.330530000000000     -0.511040000000000
C       2.559690000000000      0.806540000000000      2.079480000000000
H       1.114530000000000      1.569270000000000      3.521770000000000
C       4.195690000000000     -0.059000000000000      0.354560000000000
H       3.395050000000000      1.359660000000000      2.517030000000000
H      -1.024670000000000     -1.994020000000000     -0.067230000000000
Kr     -1.935970000000000      0.424080000000000     -0.336030000000000
H       4.856940000000000      0.541220000000000      1.005790000000000
C       4.243410000000000      0.573030000000000     -1.043020000000000
H       3.861640000000000      1.605600000000000     -0.994270000000000
H       3.555280000000000      0.021420000000000     -1.708630000000000
C       5.649790000000000      0.542260000000000     -1.629840000000000
H       5.645740000000000      0.972850000000000     -2.644150000000000
H       6.310100000000000      1.187650000000000     -1.022270000000000
C       6.215340000000000     -0.873510000000000     -1.652510000000000
H       7.245640000000000     -0.870170000000000     -2.043290000000000
H       5.620440000000000     -1.489750000000000     -2.350950000000000
C       6.173960000000000     -1.508490000000000     -0.266840000000000
H       6.857300000000000     -0.958530000000000      0.405630000000000
H       6.547350000000000     -2.544490000000000     -0.305530000000000
C       4.766920000000000     -1.481530000000000      0.319820000000000
H       4.105950000000000     -2.121800000000000     -0.291460000000000
H       4.758460000000000     -1.909430000000000      1.335270000000000
