19

C      -0.459400000000000      1.487160000000000      1.158630000000000
C       0.715840000000000      2.105130000000000      1.662190000000000
C      -0.788650000000000      1.578670000000000     -0.223270000000000
C       1.573060000000000      2.758650000000000      0.804710000000000
H       0.926470000000000      2.053800000000000      2.732360000000000
C       0.132620000000000      2.247020000000000     -1.077260000000000
C      -2.178990000000000      1.279350000000000     -0.722820000000000
C       1.280690000000000      2.818740000000000     -0.574170000000000
H       2.484800000000000      3.222630000000000      1.186210000000000
H      -0.097130000000000      2.317180000000000     -2.143220000000000
H       1.974360000000000      3.324920000000000     -1.249080000000000
H      -1.209610000000000      1.102670000000000      1.854510000000000
Kr      0.268580000000000     -0.419340000000000      0.275350000000000
H      -2.117430000000000      0.677800000000000     -1.642370000000000
H      -2.693540000000000      0.656870000000000      0.020640000000000
C      -2.973650000000000      2.558990000000000     -0.967840000000000
H      -3.991110000000000      2.320680000000000     -1.312110000000000
H      -3.059040000000000      3.157870000000000     -0.047720000000000
H      -2.501300000000000      3.193370000000000     -1.733370000000000
