28

C       0.581380000000000     -0.381100000000000      1.617410000000000
C      -0.458970000000000      0.494360000000000      1.947160000000000
C       0.240460000000000     -1.373890000000000      0.674550000000000
C      -1.744090000000000      0.465950000000000      1.382240000000000
O      -0.334730000000000      1.487690000000000      2.845190000000000
C      -1.072380000000000     -1.432120000000000      0.109660000000000
H       0.906350000000000     -2.222120000000000      0.509560000000000
C      -2.088500000000000     -0.520560000000000      0.389240000000000
C      -2.422650000000000      1.562560000000000      2.034620000000000
C      -1.523700000000000      2.118270000000000      2.888690000000000
Cl     -1.228910000000000     -2.764560000000000     -1.005480000000000
C      -3.440460000000000     -0.547680000000000     -0.348280000000000
H      -3.439040000000000      1.911170000000000      1.912730000000000
H      -1.597140000000000      2.952160000000000      3.582430000000000
H       1.536800000000000     -0.377340000000000      2.151340000000000
Kr      1.354760000000000      0.174060000000000     -0.431340000000000
C      -4.394380000000000      0.574420000000000      0.069860000000000
H      -5.309760000000000      0.486990000000000     -0.533590000000000
H      -4.694770000000000      0.496010000000000      1.123810000000000
H      -3.971710000000000      1.570780000000000     -0.118820000000000
C      -3.186190000000000     -0.347100000000000     -1.853830000000000
H      -2.584010000000000     -1.148440000000000     -2.296090000000000
H      -4.149040000000000     -0.313270000000000     -2.387020000000000
H      -2.660320000000000      0.604860000000000     -2.020860000000000
C      -4.180050000000000     -1.865970000000000     -0.063350000000000
H      -5.138030000000000     -1.872080000000000     -0.606420000000000
H      -3.613180000000000     -2.751480000000000     -0.370540000000000
H      -4.401060000000000     -1.955440000000000      1.011420000000000
