21

C       0.001640000000000     -1.143720000000000      1.443150000000000
C      -0.928030000000000     -0.540090000000000      2.457550000000000
C      -0.742210000000000     -1.424640000000000      0.288360000000000
H      -0.980640000000000     -1.193630000000000      3.348480000000000
H      -0.587680000000000      0.445160000000000      2.822050000000000
C      -2.229590000000000     -0.459120000000000      1.728940000000000
H      -0.409890000000000     -2.086560000000000     -0.514190000000000
C      -2.126070000000000     -0.966170000000000      0.479180000000000
H      -3.126320000000000      0.005040000000000      2.143860000000000
C      -3.167370000000000     -0.982590000000000     -0.600820000000000
H       0.969260000000000     -1.577640000000000      1.704710000000000
Kr      0.541730000000000      0.295170000000000     -0.036450000000000
H      -4.108980000000000     -0.635130000000000     -0.142780000000000
C      -2.787950000000000      0.001770000000000     -1.709570000000000
H      -3.573110000000000      0.047450000000000     -2.480080000000000
H      -2.635120000000000      1.011400000000000     -1.301080000000000
H      -1.850500000000000     -0.301810000000000     -2.204200000000000
C      -3.396540000000000     -2.388900000000000     -1.151890000000000
H      -3.683000000000000     -3.091730000000000     -0.355240000000000
H      -4.196510000000000     -2.384810000000000     -1.908000000000000
H      -2.488660000000000     -2.780430000000000     -1.638440000000000
