28

C      -0.335440000000000      0.520360000000000      0.730010000000000
C      -1.364750000000000     -0.554510000000000      0.480860000000000
C       0.338550000000000      0.230600000000000      1.924670000000000
C      -2.784680000000000      0.026560000000000      0.317480000000000
H      -1.124230000000000     -1.105230000000000     -0.450790000000000
C      -1.151950000000000     -1.483100000000000      1.639690000000000
H       0.957190000000000      0.937970000000000      2.480630000000000
C      -0.179970000000000     -1.027250000000000      2.457580000000000
H      -1.680320000000000     -2.430080000000000      1.756010000000000
H       0.196860000000000     -1.519100000000000      3.354720000000000
H      -0.368930000000000      1.497680000000000      0.244300000000000
Kr      1.603040000000000     -0.142900000000000      0.182770000000000
H      -2.973830000000000      0.689370000000000      1.183520000000000
C      -3.857020000000000     -1.064350000000000      0.322980000000000
H      -3.821010000000000     -1.631840000000000      1.266040000000000
H      -3.634160000000000     -1.784450000000000     -0.486550000000000
C      -5.256140000000000     -0.490170000000000      0.123520000000000
H      -5.996870000000000     -1.305790000000000      0.102120000000000
H      -5.513400000000000      0.137990000000000      0.995540000000000
C      -5.348540000000000      0.351810000000000     -1.143200000000000
H      -6.354950000000000      0.789790000000000     -1.241230000000000
H      -5.205600000000000     -0.300080000000000     -2.024110000000000
C      -4.285260000000000      1.443340000000000     -1.151840000000000
H      -4.493850000000000      2.162660000000000     -0.339290000000000
H      -4.326930000000000      2.018270000000000     -2.090620000000000
C      -2.889400000000000      0.862000000000000     -0.960710000000000
H      -2.643770000000000      0.211820000000000     -1.820780000000000
H      -2.138460000000000      1.666950000000000     -0.967000000000000
