21

C       0.924590000000000     -0.859830000000000      0.395240000000000
C       2.125680000000000     -0.016610000000000      0.044320000000000
C       0.535650000000000     -0.565300000000000      1.709570000000000
C       3.328470000000000     -0.871990000000000     -0.417060000000000
H       1.876850000000000      0.675650000000000     -0.785520000000000
C       2.324400000000000      0.799020000000000      1.287530000000000
H      -0.136710000000000     -1.177120000000000      2.314390000000000
C       1.414370000000000      0.479110000000000      2.231420000000000
H       3.073980000000000      1.586410000000000      1.375960000000000
H       1.311480000000000      0.937140000000000      3.215480000000000
H       0.649050000000000     -1.759680000000000     -0.158500000000000
Kr     -0.863530000000000      0.271730000000000      0.255730000000000
H       3.484010000000000     -1.652540000000000      0.349740000000000
C       3.024730000000000     -1.549000000000000     -1.749000000000000
H       3.850840000000000     -2.213670000000000     -2.043770000000000
H       2.105070000000000     -2.150990000000000     -1.719800000000000
H       2.900130000000000     -0.797060000000000     -2.545380000000000
C       4.601490000000000     -0.039130000000000     -0.512130000000000
H       4.910150000000000      0.363180000000000      0.463650000000000
H       5.432850000000000     -0.649370000000000     -0.896400000000000
H       4.466160000000000      0.809320000000000     -1.203320000000000
