20

C      -0.056120000000000     -1.170780000000000      1.224860000000000
C       0.198510000000000     -1.517660000000000     -0.132080000000000
N       1.121610000000000     -0.830080000000000      1.831960000000000
C       1.631860000000000     -1.318000000000000     -0.312910000000000
C      -0.617940000000000     -2.445850000000000     -0.978740000000000
C       2.156390000000000     -0.870850000000000      0.919150000000000
H       1.178980000000000     -0.393580000000000      2.741640000000000
C       2.482790000000000     -1.496890000000000     -1.407100000000000
C       3.506570000000000     -0.561310000000000      1.075940000000000
C       3.832880000000000     -1.204890000000000     -1.254860000000000
H       2.089900000000000     -1.850930000000000     -2.362900000000000
C       4.333360000000000     -0.738340000000000     -0.027560000000000
H       3.901320000000000     -0.197100000000000      2.026390000000000
H       4.515370000000000     -1.334430000000000     -2.097390000000000
H       5.397940000000000     -0.510060000000000      0.062800000000000
H      -0.985420000000000     -1.348820000000000      1.774300000000000
Kr     -0.687570000000000      0.500040000000000     -0.099660000000000
H      -0.781220000000000     -2.048140000000000     -1.989980000000000
H      -1.593130000000000     -2.640360000000000     -0.518970000000000
H      -0.081860000000000     -3.403970000000000     -1.072070000000000
