20

C      -0.078530000000000     -1.081010000000000      1.410230000000000
C       0.298690000000000     -1.436420000000000      0.089430000000000
N       1.013600000000000     -0.591330000000000      2.057500000000000
C       1.714300000000000     -1.135070000000000     -0.019860000000000
H      -0.260310000000000     -2.126160000000000     -0.542300000000000
C       2.111570000000000     -0.581830000000000      1.215830000000000
H       0.981050000000000     -0.147870000000000      2.965140000000000
C       2.630780000000000     -1.263750000000000     -1.076780000000000
C       3.411690000000000     -0.133570000000000      1.444470000000000
C       3.932440000000000     -0.827680000000000     -0.836240000000000
C       2.197910000000000     -1.824450000000000     -2.395430000000000
C       4.313310000000000     -0.273470000000000      0.396900000000000
H       3.708840000000000      0.306480000000000      2.398040000000000
H       4.675250000000000     -0.911190000000000     -1.633470000000000
H       5.344850000000000      0.059830000000000      0.532590000000000
H      -1.028950000000000     -1.286410000000000      1.912340000000000
Kr     -0.849890000000000      0.366120000000000     -0.146490000000000
H       1.372190000000000     -1.230700000000000     -2.820120000000000
H       1.827540000000000     -2.856840000000000     -2.289370000000000
H       3.023070000000000     -1.832570000000000     -3.120210000000000
