22

C       0.206990000000000     -1.338830000000000      0.673720000000000
C       1.455940000000000     -1.279470000000000     -0.046220000000000
C       0.052050000000000     -0.701090000000000      1.926030000000000
C       2.539330000000000     -0.551020000000000      0.512690000000000
C       1.607390000000000     -1.913970000000000     -1.294790000000000
C       1.167460000000000      0.039950000000000      2.446510000000000
C      -1.100710000000000     -1.014400000000000      2.833210000000000
C       2.352690000000000      0.099200000000000      1.773440000000000
C       3.758350000000000     -0.489200000000000     -0.194210000000000
C       2.813200000000000     -1.838950000000000     -1.965630000000000
H       0.746460000000000     -2.429080000000000     -1.726760000000000
H       1.052350000000000      0.546080000000000      3.407590000000000
H       3.190070000000000      0.662390000000000      2.193400000000000
H       4.591740000000000      0.074100000000000      0.233140000000000
C       3.893660000000000     -1.126380000000000     -1.412250000000000
H       2.926670000000000     -2.327520000000000     -2.936060000000000
H       4.840980000000000     -1.072070000000000     -1.953700000000000
H      -0.523570000000000     -2.081270000000000      0.348620000000000
Kr     -0.784160000000000      0.511560000000000      0.157600000000000
H      -1.377930000000000     -0.137340000000000      3.435750000000000
H      -0.805450000000000     -1.816830000000000      3.529810000000000
H      -1.980040000000000     -1.339600000000000      2.264100000000000
