16

C      -0.235520000000000     -1.167420000000000      0.747310000000000
C       1.150500000000000     -0.765270000000000      0.694850000000000
C      -0.745860000000000     -0.588740000000000      1.936750000000000
C       1.410160000000000      0.030940000000000      1.833060000000000
C       2.191190000000000     -0.935960000000000     -0.218040000000000
H      -1.685730000000000     -0.816600000000000      2.438410000000000
N       0.255740000000000      0.089600000000000      2.579690000000000
N       2.547060000000000      0.631970000000000      2.133560000000000
C       3.409800000000000     -0.319510000000000      0.086650000000000
Cl      1.957560000000000     -1.839810000000000     -1.648870000000000
H       0.147550000000000      0.672880000000000      3.399130000000000
C       3.528900000000000      0.444090000000000      1.263240000000000
Cl      4.765790000000000     -0.462600000000000     -0.961840000000000
H       4.492340000000000      0.918520000000000      1.474670000000000
H      -0.709810000000000     -1.957740000000000      0.157600000000000
Kr     -1.473720000000000      0.486530000000000      0.123540000000000
