16

C       0.049730000000000      0.942270000000000     -0.965020000000000
C       1.419370000000000      0.977450000000000     -0.509060000000000
C      -0.076640000000000     -0.259230000000000     -1.704480000000000
C       2.070820000000000     -0.189270000000000     -0.972320000000000
C       2.179440000000000      1.830510000000000      0.290080000000000
H      -0.864780000000000     -0.555000000000000     -2.396030000000000
N       1.147300000000000     -0.888110000000000     -1.731720000000000
N       3.306870000000000     -0.565760000000000     -0.730370000000000
C       3.500860000000000      1.476760000000000      0.553030000000000
Cl      1.485690000000000      3.257850000000000      0.942590000000000
Cl      1.394890000000000     -2.453160000000000     -2.299520000000000
C       4.004090000000000      0.279660000000000      0.025050000000000
H       4.128860000000000      2.117210000000000      1.172600000000000
H       5.040140000000000     -0.002570000000000      0.239250000000000
H      -0.655790000000000      1.779150000000000     -0.978320000000000
Kr     -1.075060000000000     -0.441820000000000      0.254080000000000
