28

C       0.794930000000000     -1.300170000000000     -0.540010000000000
C      -0.596190000000000     -1.136210000000000     -0.198040000000000
C       0.939910000000000     -0.695540000000000     -1.815100000000000
C      -1.223710000000000     -0.445970000000000     -1.257410000000000
C      -1.404250000000000     -1.424630000000000      0.902500000000000
H       1.775720000000000     -0.791880000000000     -2.507240000000000
N      -0.279210000000000     -0.227560000000000     -2.234810000000000
N      -2.482120000000000     -0.051780000000000     -1.316850000000000
C      -2.735160000000000     -1.034940000000000      0.862700000000000
Cl     -0.749260000000000     -2.222060000000000      2.277520000000000
H      -0.447600000000000      0.332880000000000     -3.059750000000000
C      -3.241530000000000     -0.346510000000000     -0.262980000000000
H      -3.377010000000000     -1.253070000000000      1.715840000000000
C      -4.701120000000000      0.099430000000000     -0.285960000000000
H       1.513660000000000     -1.967400000000000     -0.055980000000000
Kr      1.831280000000000      0.574470000000000     -0.228900000000000
C      -5.025900000000000      0.797480000000000     -1.604980000000000
H      -6.080280000000000      1.113700000000000     -1.606450000000000
H      -4.392600000000000      1.682730000000000     -1.754110000000000
H      -4.858780000000000      0.129590000000000     -2.461540000000000
C      -5.611330000000000     -1.126370000000000     -0.126200000000000
H      -5.442900000000000     -1.646290000000000      0.828780000000000
H      -6.667910000000000     -0.817450000000000     -0.155120000000000
H      -5.445850000000000     -1.849510000000000     -0.939400000000000
C      -4.939230000000000      1.077550000000000      0.874050000000000
H      -5.982660000000000      1.429670000000000      0.862960000000000
H      -4.754490000000000      0.609910000000000      1.852840000000000
H      -4.280800000000000      1.955440000000000      0.788840000000000
