21

C      -0.137620000000000     -1.447700000000000      0.755910000000000
C      -0.140220000000000     -1.409880000000000     -0.648040000000000
N       1.151260000000000     -1.231480000000000      1.199700000000000
O       1.155840000000000     -1.208240000000000     -1.023850000000000
H      -0.835190000000000     -1.827980000000000     -1.372660000000000
C       1.858750000000000     -1.081140000000000      0.125090000000000
C       3.332250000000000     -0.837550000000000      0.016710000000000
H      -0.930980000000000     -1.824020000000000      1.399450000000000
Kr     -0.974510000000000      0.464680000000000      0.012400000000000
C       3.615800000000000      0.131430000000000     -1.135830000000000
H       4.697570000000000      0.323370000000000     -1.194090000000000
H       3.287460000000000     -0.284200000000000     -2.099110000000000
H       3.089760000000000      1.083020000000000     -0.977530000000000
C       3.829390000000000     -0.257600000000000      1.339930000000000
H       4.917340000000000     -0.101240000000000      1.290130000000000
H       3.605930000000000     -0.931460000000000      2.178240000000000
H       3.342240000000000      0.706600000000000      1.545230000000000
C       4.003300000000000     -2.194380000000000     -0.259150000000000
H       5.091290000000000     -2.056090000000000     -0.352340000000000
H       3.814570000000000     -2.902600000000000      0.561370000000000
H       3.633490000000000     -2.638810000000000     -1.195380000000000
