30

C       0.065740000000000     -0.932350000000000     -1.208800000000000
C       0.088330000000000     -1.267940000000000      0.163070000000000
N      -1.238210000000000     -0.666730000000000     -1.583550000000000
O      -1.220350000000000     -1.197380000000000      0.574490000000000
C       0.993160000000000     -2.140940000000000      0.978640000000000
C      -1.938610000000000     -0.815780000000000     -0.507150000000000
C      -3.418350000000000     -0.662670000000000     -0.334870000000000
H       0.893210000000000     -1.077560000000000     -1.907330000000000
Kr      0.805570000000000      0.777150000000000     -0.037080000000000
C      -3.717090000000000      0.027350000000000      1.000490000000000
H      -4.804520000000000      0.151630000000000      1.113150000000000
H      -3.348460000000000     -0.566350000000000      1.849220000000000
H      -3.236270000000000      1.014470000000000      1.038990000000000
C      -3.963570000000000      0.162540000000000     -1.498730000000000
H      -3.730680000000000     -0.308890000000000     -2.463270000000000
H      -5.055570000000000      0.260100000000000     -1.405240000000000
H      -3.515730000000000      1.166640000000000     -1.500370000000000
C      -4.030390000000000     -2.074240000000000     -0.344050000000000
H      -5.121090000000000     -2.006260000000000     -0.212210000000000
H      -3.829770000000000     -2.585560000000000     -1.297400000000000
H      -3.624850000000000     -2.689470000000000      0.473340000000000
H       1.955940000000000     -2.133630000000000      0.449330000000000
C       1.180530000000000     -1.621620000000000      2.399940000000000
H       1.818220000000000     -2.309170000000000      2.974990000000000
H       1.660730000000000     -0.632550000000000      2.397460000000000
H       0.213710000000000     -1.540420000000000      2.920460000000000
C       0.446360000000000     -3.570680000000000      0.956360000000000
H       0.327960000000000     -3.937810000000000     -0.073890000000000
H       1.139380000000000     -4.245680000000000      1.480020000000000
H      -0.531130000000000     -3.628200000000000      1.458870000000000
