22

C       0.089820000000000     -1.582520000000000      0.430530000000000
C      -1.149070000000000     -1.230710000000000      1.003590000000000
C      -0.216910000000000     -1.639940000000000     -0.971430000000000
N      -2.017980000000000     -1.085110000000000      0.002440000000000
H      -1.412370000000000     -1.068360000000000      2.043780000000000
H       0.443420000000000     -1.927580000000000     -1.788730000000000
N      -1.484530000000000     -1.335160000000000     -1.201810000000000
C      -3.428140000000000     -0.638060000000000      0.058170000000000
H       0.961440000000000     -1.967520000000000      0.967600000000000
Kr      0.967690000000000      0.355630000000000     -0.098290000000000
C      -3.796660000000000     -0.314790000000000      1.499230000000000
H      -4.842620000000000      0.020310000000000      1.528480000000000
H      -3.713050000000000     -1.194840000000000      2.154590000000000
H      -3.171050000000000      0.496890000000000      1.899240000000000
C      -3.552600000000000      0.611710000000000     -0.812590000000000
H      -3.294770000000000      0.378440000000000     -1.854010000000000
H      -4.586740000000000      0.984120000000000     -0.775400000000000
H      -2.867390000000000      1.392090000000000     -0.452660000000000
C      -4.290390000000000     -1.776410000000000     -0.483880000000000
H      -5.345420000000000     -1.467500000000000     -0.505200000000000
H      -3.977200000000000     -2.037750000000000     -1.503740000000000
H      -4.202380000000000     -2.671850000000000      0.149850000000000
