17

C      -0.080960000000000     -1.485950000000000     -0.168350000000000
C       0.168040000000000     -1.203950000000000     -1.543830000000000
C       1.079420000000000     -1.486540000000000      0.666090000000000
C       1.441090000000000     -0.863540000000000     -1.971520000000000
H      -0.651970000000000     -1.301030000000000     -2.258830000000000
N       2.274150000000000     -1.160200000000000      0.283580000000000
Cl      0.876560000000000     -1.954380000000000      2.314000000000000
C       2.472760000000000     -0.810390000000000     -1.009040000000000
H       1.640230000000000     -0.620780000000000     -3.016290000000000
N       3.722010000000000     -0.427820000000000     -1.327790000000000
H      -1.001680000000000     -1.961570000000000      0.187910000000000
Kr     -0.788130000000000      0.550120000000000     -0.159590000000000
H       3.884460000000000     -0.112320000000000     -2.272950000000000
C       4.778380000000000     -0.294040000000000     -0.356280000000000
H       5.705420000000000     -0.025430000000000     -0.878250000000000
H       4.934120000000000     -1.236620000000000      0.187760000000000
H       4.544870000000000      0.483520000000000      0.388890000000000
