16

C       0.517280000000000     -1.696900000000000      0.077770000000000
C       1.904910000000000     -1.583810000000000     -0.221630000000000
C       0.042960000000000     -1.350310000000000      1.366250000000000
C       2.766560000000000     -1.122050000000000      0.752720000000000
C       2.384920000000000     -1.972330000000000     -1.586230000000000
C       0.959110000000000     -0.902530000000000      2.350130000000000
H      -0.996510000000000     -1.534940000000000      1.647380000000000
C       2.297400000000000     -0.792430000000000      2.041670000000000
H       3.828200000000000     -1.002040000000000      0.521490000000000
H       2.361270000000000     -3.070760000000000     -1.705900000000000
F       1.579030000000000     -1.430060000000000     -2.555770000000000
H       3.420470000000000     -1.629500000000000     -1.744160000000000
H       0.589750000000000     -0.648430000000000      3.345270000000000
H       3.004820000000000     -0.433640000000000      2.792340000000000
H      -0.149150000000000     -2.193070000000000     -0.631720000000000
Kr     -0.334150000000000      0.347740000000000     -0.075200000000000
