24

C       0.040610000000000      0.974620000000000     -1.351930000000000
C      -0.951430000000000      1.444660000000000     -0.441170000000000
C       1.377130000000000      1.120400000000000     -1.046420000000000
C      -0.558540000000000      2.171880000000000      0.735880000000000
H      -1.963320000000000      1.555360000000000     -0.831320000000000
C       1.771820000000000      1.780360000000000      0.138560000000000
O       2.311130000000000      0.659520000000000     -1.928440000000000
C       0.814610000000000      2.306190000000000      1.002970000000000
N      -1.493570000000000      2.704320000000000      1.556770000000000
C       3.194810000000000      1.855060000000000      0.407760000000000
C       3.547740000000000      0.306620000000000     -1.459820000000000
H       1.143470000000000      2.815440000000000      1.912370000000000
C       4.052660000000000      1.153470000000000     -0.349760000000000
H       3.545960000000000      2.460670000000000      1.246510000000000
Cl      3.559000000000000     -1.457960000000000     -0.869560000000000
H       4.222130000000000      0.273840000000000     -2.322960000000000
H       5.126450000000000      1.136960000000000     -0.153790000000000
H      -0.292690000000000      0.508160000000000     -2.280290000000000
Kr     -1.009430000000000     -0.564240000000000      0.346670000000000
H      -1.164870000000000      3.103270000000000      2.424320000000000
C      -2.902350000000000      2.445140000000000      1.422350000000000
H      -3.424070000000000      2.827790000000000      2.308220000000000
H      -3.107030000000000      1.363410000000000      1.326050000000000
H      -3.329500000000000      2.945800000000000      0.536800000000000
