14
Properties=species:S:1:pos:R:3 RH_Sub20.log=T Energy:=T -143354.4284316=T pbc="F F F"
N        1.67889000      -0.67902000      -0.07891000
H        1.58374000      -1.68199000      -0.13481000
H        2.50123000      -0.33591000       0.39348000
C        0.52547000       0.08367000      -0.00192000
N       -0.62934000      -0.68747000      -0.01853000
C        0.53880000       1.43646000       0.02105000
H       -0.37197000       2.01348000       0.16510000
H        1.47556000       1.97544000      -0.12084000
H       -0.57158000      -1.50480000       0.57989000
C       -1.91960000      -0.05842000      -0.02852000
H       -2.69986000      -0.82765000      -0.11897000
H       -1.99944000       0.60877000      -0.90030000
H       -2.13254000       0.54785000       0.87481000
Xe       1.16722006       1.68761504       0.93704523
