18
Properties=species:S:1:pos:R:3 RH_Sub42.log=T Energy:=T -157923.6121932=T pbc="F F F"
N       -1.20215000      -0.41124000       0.52812000
C       -1.96829000      -0.51961000      -0.68674000
H       -1.79831000      -0.56847000       1.33489000
C       -0.48087000       0.83118000       0.69829000
H       -1.15567000       1.71824000       0.66752000
H       -0.02355000       0.81821000       1.70191000
C        1.75045000       0.08473000      -0.37923000
H        2.60434000       0.40532000      -0.99096000
C        1.81511000      -1.10016000       0.23118000
H        2.70304000      -1.73066000       0.13187000
C        0.62013000       1.06892000      -0.32827000
H        1.04111000       2.07073000      -0.13081000
H        0.18118000       1.15919000      -1.33992000
H        0.97255000      -1.47886000       0.81488000
H       -2.64719000       0.34124000      -0.88082000
H       -2.58103000      -1.43272000      -0.65866000
H       -1.30051000      -0.61385000      -1.55808000
Xe       1.85878531      -1.85225121      -0.62404183
