26
Properties=species:S:1:pos:R:3 aa101_opt_TZ.log=T Energy:=T -349087.4486359=T pbc="F F F"
C       -1.27371000       0.38410000      -0.03007000
C       -1.30509000      -0.87770000      -0.61996000
C       -2.49497000      -1.57761000      -0.70139000
C       -3.66232000      -1.03019000      -0.19526000
C       -3.64020000       0.22855000       0.38489000
C       -2.45536000       0.93376000       0.46394000
H       -0.40081000      -1.30467000      -1.02985000
H       -2.51189000      -2.55417000      -1.16325000
H       -4.58863000      -1.58259000      -0.25674000
H       -4.55096000       0.65864000       0.77525000
H       -2.41632000       1.91637000       0.90704000
C       -0.02371000       1.15733000       0.05341000
C        1.25324000       0.40379000       0.05341000
C        2.31619000       0.83215000      -0.73666000
C        3.52140000       0.15463000      -0.71496000
C        3.68428000      -0.94416000       0.11227000
C        2.63624000      -1.36699000       0.91397000
C        1.42382000      -0.70325000       0.88108000
H        2.18485000       1.68732000      -1.38590000
H        4.33562000       0.48568000      -1.34289000
H        4.62713000      -1.47054000       0.13247000
H        2.76352000      -2.22031000       1.56410000
H        0.60630000      -1.02981000       1.50805000
N       -0.10312000       2.42121000       0.13029000
H        0.79417000       2.89911000       0.19167000
Xe      -3.90890623       0.03006721       1.47121963
