27
Properties=species:S:1:pos:R:3 aa59_plan_opt_TZ.log=T Energy:=T -349256.2037954=T pbc="F F F"
C        0.76988000       0.01868000      -0.08760000
C        1.53309000       1.16849000       0.12402000
C        2.91306000       1.10538000       0.14807000
C        3.57158000      -0.09772000      -0.03741000
C        2.82472000      -1.24198000      -0.24917000
C        1.44262000      -1.19096000      -0.27355000
H        1.04270000       2.11507000       0.26948000
H        3.47706000       2.01109000       0.31482000
H        4.64992000      -0.14402000      -0.01708000
H        3.31776000      -2.19204000      -0.39673000
H        0.90782000      -2.11156000      -0.44208000
N       -0.63292000       0.07510000      -0.12179000
C       -1.44162000      -1.13213000      -0.26456000
C       -2.81156000      -0.60249000      -0.70343000
C       -2.86376000       0.78163000      -0.07553000
C       -1.40342000       1.19357000       0.03297000
O       -1.02785000       2.32653000       0.22732000
H       -3.41890000       1.51405000      -0.65831000
H       -3.61878000      -1.25374000      -0.37419000
C       -1.52167000      -1.88883000       1.06306000
H       -3.28839000       0.76302000       0.93003000
H       -2.85206000      -0.52305000      -1.79051000
H       -1.01442000      -1.77711000      -1.03788000
H       -2.08130000      -2.81186000       0.93401000
H       -0.52711000      -2.13179000       1.42855000
H       -2.01850000      -1.27784000       1.81266000
Xe       4.08505054      -0.28653946       0.95860142
