16
Properties=species:S:1:pos:R:3 RH_Sub5_O.log=T Energy:=T -552206.1039526=T pbc="F F F"
O       -2.09488000      -1.84966000      -0.00022000
C       -1.66030000      -0.57650000       0.00003000
H       -3.06198000      -1.79488000      -0.00013000
O       -2.42510000       0.35092000       0.00027000
C       -0.17163000      -0.49812000       0.00002000
C        0.57486000      -1.68775000       0.00003000
C        0.52884000       0.72359000       0.00001000
C        1.96273000      -1.67803000       0.00005000
C        1.92579000       0.73324000      -0.00001000
Cl      -0.25260000       2.26058000      -0.00007000
C        2.63927000      -0.45919000       0.00002000
H        2.51584000      -2.61927000       0.00009000
H        2.43968000       1.69557000      -0.00005000
H        3.73145000      -0.43215000       0.00002000
H        0.03173000      -2.63265000       0.00004000
Xe       2.23927035      -2.14861611       1.00007000
