42
Properties=species:S:1:pos:R:3 RH_Sub37.log=T Energy:=T -401742.6623794=T pbc="F F F"
C       -2.06985000       0.65528000      -0.69424000
H       -1.26920000       0.12687000      -1.24245000
C       -1.63782000       0.87032000       0.74875000
H       -2.21687000       1.61783000      -1.21171000
N       -3.19605000      -1.47727000      -0.24981000
C       -3.35184000      -0.15649000      -0.81101000
H       -4.16331000       0.35424000      -0.25985000
C       -4.37729000      -2.29608000      -0.31605000
H       -5.17564000      -1.85347000       0.30281000
H       -4.79553000      -2.42403000      -1.33970000
H       -4.16901000      -3.29725000       0.09073000
C       -0.26576000       1.53468000       0.96816000
H       -0.12858000       1.53652000       2.05961000
C        0.87035000       0.66967000       0.43155000
C       -0.27009000       3.01624000       0.58991000
H        0.73240000       3.45959000       0.68705000
H       -0.62805000       3.21327000      -0.42830000
H       -0.94005000       3.55927000       1.27482000
H       -2.40953000      -1.94754000      -0.69284000
H       -1.65146000      -0.11468000       1.24032000
H       -2.40369000       1.47606000       1.26677000
H       -3.67793000      -0.17661000      -1.87668000
C        1.43500000       0.78445000      -0.85784000
C        1.35783000      -0.35260000       1.28520000
C        2.44323000      -0.10708000      -1.25144000
C        2.36249000      -1.21642000       0.84879000
C        2.92547000      -1.11501000      -0.42337000
H        2.86381000      -0.00199000      -2.25625000
H        2.71735000      -1.99561000       1.53058000
C        1.03965000       1.82987000      -1.86954000
H        1.37819000       2.83462000      -1.57561000
H       -0.04555000       1.88443000      -2.02327000
H        1.49951000       1.60291000      -2.84135000
C        4.01203000      -2.05050000      -0.86759000
H        4.93132000      -1.90227000      -0.27776000
H        4.26675000      -1.89871000      -1.92604000
H        3.71354000      -3.10275000      -0.73812000
C        0.83424000      -0.53930000       2.68484000
H       -0.25316000      -0.70635000       2.70878000
H        1.03798000       0.33962000       3.31840000
H        1.31322000      -1.40519000       3.16198000
Ne       4.73759101       1.82033787      -0.68543508
