27

C  1.082580 -1.400680 1.373660
C  -0.002310 -0.944520 2.147430
C  0.660040 -1.554240 0.015390
C  -1.128800 -0.824100 1.326940
H  0.037150 -0.680640 3.203340
C  -0.753320 -1.240210 -0.025790
H  1.161340 -2.170860 -0.732600
C  -2.394740 -0.348030 1.727910
C  -1.549280 -1.327410 -1.144750
C  -3.551820 -0.218880 0.994340
H  -2.460720 -0.046450 2.778350
C  -2.915780 -1.016130 -1.292480
H  -1.045870 -1.678470 -2.051610
C  -3.821600 -0.517890 -0.368750
H  -4.403900 0.176080 1.555070
H  -3.316250 -1.181390 -2.297360
C  -5.239720 -0.257690 -0.851060
H  2.085980 -1.640040 1.732320
H  -5.269000 -0.548580 -1.913760
C  -6.259480 -1.124220 -0.111770
H  -7.264920 -0.975490 -0.534480
H  -6.009880 -2.192700 -0.191130
H  -6.311450 -0.869470 0.958480
C  -5.597060 1.226970 -0.773780
H  -4.872810 1.842130 -1.328000
H  -6.595520 1.402640 -1.202690
H  -5.617170 1.587310 0.266810
