27

C  0.624530 -0.827900 1.459310
C  -0.579510 -0.295810 1.989210
C  0.395990 -1.384400 0.159100
C  -1.596540 -0.484390 1.064140
H  -0.674140 0.224790 2.940700
C  -1.032300 -1.194230 -0.102820
C  1.275590 -2.468530 -0.435470
C  -2.917420 -0.011190 1.232510
C  -1.700370 -1.614410 -1.222580
C  -3.997960 -0.161560 0.397140
H  -3.102980 0.539280 2.158610
C  -3.071170 -1.458260 -1.551540
H  -1.101700 -2.131190 -1.973850
C  -4.070690 -0.824570 -0.857610
Cl  -5.497250 0.548360 0.929710
H  -3.372260 -1.895680 -2.507250
H  -5.060160 -0.817510 -1.321170
H  1.554620 -0.923510 2.021230
H  2.241610 -2.351340 0.076980
C  0.722150 -3.850110 -0.079260
H  1.429620 -4.636070 -0.385660
H  0.555610 -3.947100 1.004230
H  -0.236640 -4.048790 -0.583030
C  1.576090 -2.338790 -1.927010
H  1.975180 -1.342630 -2.162130
H  2.337230 -3.079770 -2.215310
H  0.697760 -2.522870 -2.563930
