21

C  0.046400 -1.479430 0.189430
C  1.343710 -1.266020 -0.329030
C  -0.221870 -1.018500 1.502500
C  2.335790 -0.615740 0.422560
S  1.916680 -1.709500 -1.897410
C  0.792120 -0.376520 2.292740
H  -1.147340 -1.335140 1.990130
C  2.036980 -0.180770 1.740530
C  3.570390 -0.484190 -0.301500
C  3.466430 -1.035020 -1.550010
C  0.454020 0.061120 3.684670
H  2.813740 0.319640 2.324430
C  4.790140 0.178890 0.248210
H  4.248880 -1.078720 -2.307920
H  -0.682950 -2.084950 -0.356390
H  0.122000 -0.791040 4.299180
H  -0.369980 0.792150 3.677230
H  1.316940 0.524740 4.181550
H  5.136300 -0.318870 1.168280
H  4.585020 1.231040 0.503560
H  5.615940 0.161320 -0.475590
