33

C  -1.119880 -1.386780 1.063420
C  -0.434200 -1.583130 -0.165260
C  -0.363670 -0.846000 2.120240
C  0.930120 -1.243850 -0.260230
C  -0.703310 -2.177410 -1.449810
C  0.977830 -0.469410 1.986430
H  -0.859090 -0.703320 3.082540
C  1.673720 -0.669120 0.766260
O  1.371480 -1.570930 -1.492230
H  -1.643450 -2.575580 -1.827730
N  0.349610 -2.153650 -2.205170
C  1.665850 0.172050 3.156120
C  3.101840 -0.248190 0.555470
H  -2.117350 -1.782400 1.255500
H  2.576430 -0.373000 3.448390
H  0.999560 0.209770 4.027770
H  1.963050 1.205220 2.916850
H  3.470740 0.178350 1.501070
C  3.204110 0.861930 -0.503700
H  2.545720 1.697210 -0.218410
H  2.821560 0.475870 -1.463430
C  4.645970 1.322960 -0.676440
H  4.701840 2.095860 -1.460020
H  4.990670 1.803720 0.257510
C  5.569590 0.156790 -1.011960
H  6.611610 0.504250 -1.099780
H  5.291980 -0.250450 -2.000730
C  5.465990 -0.951540 0.030370
H  5.848390 -0.577690 0.997900
H  6.108400 -1.802590 -0.247300
C  4.027030 -1.423430 0.206110
H  3.675990 -1.896410 -0.725580
H  3.964400 -2.191330 0.994340
