18

C  0.322740 -1.473540 -0.494980
C  1.626740 -1.150550 -0.899340
C  0.101500 -1.500050 0.908270
C  2.659610 -0.859970 -0.005620
O  2.062900 -1.057750 -2.172790
C  1.153050 -1.224140 1.851230
H  -0.827660 -1.937530 1.281850
C  2.409980 -0.899750 1.387920
C  3.799010 -0.572520 -0.826130
C  3.367270 -0.710700 -2.110790
C  0.839670 -1.303140 3.314690
H  3.213190 -0.675620 2.093770
H  4.801220 -0.297690 -0.506320
H  3.870300 -0.598820 -3.068320
H  -0.440940 -1.802010 -1.207100
H  0.492870 -2.311660 3.591710
H  0.035050 -0.600890 3.583510
H  1.719440 -1.065150 3.927630
