18

C  0.510620 -0.994400 1.186410
C  -0.809440 -0.546130 1.352990
C  0.789910 -1.649220 -0.042030
C  -1.804410 -0.702150 0.387900
O  -1.293240 0.112810 2.429400
C  -0.243320 -1.832400 -1.018430
H  1.724330 -2.199810 -0.164650
C  -1.521870 -1.364100 -0.828800
C  -2.964680 -0.074450 0.951450
C  -2.583600 0.389820 2.175240
Cl  0.172620 -2.661770 -2.473360
H  -2.286260 -1.499280 -1.594130
C  -4.305480 0.065890 0.323190
H  -3.129750 0.921820 2.950100
H  1.251430 -0.952790 1.993220
F  -5.169620 0.654660 1.151900
F  -4.808660 -1.124470 -0.019540
F  -4.247580 0.796490 -0.794250
