18

C  0.070590 -0.867330 1.009410
C  1.426480 -0.387220 0.853200
C  -0.473090 -0.108000 2.075480
C  1.632240 0.626110 1.818220
C  2.484390 -0.648290 -0.018910
H  -1.393480 -0.297670 2.626700
N  0.479880 0.748430 2.559770
N  2.725400 1.347980 1.986740
C  3.651670 0.088160 0.144400
C  2.327800 -1.663440 -1.120540
H  0.335340 1.465420 3.258530
C  3.719830 1.063020 1.153220
H  4.506170 -0.082210 -0.510730
H  4.640010 1.643250 1.278050
H  -0.354370 -1.787230 0.595840
F  3.466490 -1.848540 -1.788960
F  1.402130 -1.268860 -1.996810
F  1.943220 -2.843730 -0.633270
