24

C  -0.701220 -1.506310 0.595610
C  -0.585520 -1.585600 -0.802600
O  0.564000 -1.369720 1.074180
H  -1.340230 -1.912090 -1.517690
N  0.751840 -1.475970 -1.139510
C  1.372980 -1.336310 -0.013460
C  2.825470 -1.148270 0.224480
H  -1.507450 -1.752220 1.293660
H  3.150760 -2.012490 0.837030
C  3.102870 0.122330 1.044870
H  2.553020 0.077060 1.997140
H  2.694820 0.984640 0.492670
C  4.596540 0.298010 1.286050
H  4.775020 1.231680 1.843090
H  4.961570 -0.521480 1.931610
C  5.382110 0.295850 -0.020770
H  6.461280 0.392580 0.179250
H  5.094570 1.180700 -0.616940
C  5.101790 -0.964780 -0.831470
H  5.491730 -1.842680 -0.284730
H  5.642230 -0.934960 -1.790800
C  3.610880 -1.150620 -1.085040
H  3.229470 -0.332970 -1.719870
H  3.414880 -2.081030 -1.638900
