22

C  -0.191570 0.062560 -0.322930
C  0.780930 -0.511770 0.545560
C  0.476850 0.680940 -1.411520
C  2.068840 -0.249430 -0.008570
N  0.588140 -1.210100 1.712070
C  1.856510 0.539360 -1.260830
H  -0.008980 1.206620 -2.233730
C  3.259960 -0.713970 0.510280
C  2.835520 1.050600 -2.104000
C  4.565700 -0.495200 0.043240
H  3.192890 -1.349460 1.398550
C  4.223830 0.936410 -2.004990
H  2.460760 1.615760 -2.964140
C  4.985990 0.248450 -1.058070
Cl  5.831330 -1.263970 0.977030
H  4.800840 1.438970 -2.785600
H  6.069370 0.282970 -1.200480
H  1.326760 -1.108720 2.394370
C  -0.706450 -1.525650 2.247860
H  -0.577600 -2.160240 3.136170
H  -1.301450 -2.086150 1.512630
H  -1.295270 -0.634380 2.548870
