18

C  -0.142710 -0.145650 -0.047270
C  -1.096870 0.790070 -0.461690
C  -0.698440 -1.366090 0.352220
C  -2.488560 0.584730 -0.461450
O  -0.848250 2.047320 -0.887110
C  -2.074710 -1.606890 0.358720
H  -0.037050 -2.181480 0.653670
C  -3.034780 -0.656110 -0.045800
C  -2.988520 1.848050 -0.920790
N  -2.029120 2.690950 -1.160330
Cl  -2.650010 -3.169410 0.884590
N  -4.359690 -0.946550 -0.018180
H  -4.012950 2.177240 -1.082140
H  -4.587090 -1.881960 0.291830
C  -5.416420 -0.081640 -0.445460
H  -6.371390 -0.613060 -0.344780
H  -5.313560 0.217540 -1.503760
H  -5.483800 0.835540 0.166290
