18

C  0.073970 -0.706370 -0.367840
C  -1.352320 -0.859370 -0.139700
C  0.432820 -1.900470 -0.935370
C  -1.686970 -2.148110 -0.576920
C  -2.346190 -0.020720 0.385960
Cl  1.947250 -2.455980 -1.484690
O  -0.583400 -2.783460 -1.064750
C  -2.976620 -2.661200 -0.505630
C  -3.646320 -0.517690 0.457770
H  -2.085850 0.992510 0.687660
C  -3.951280 -1.827220 0.020820
H  -3.209050 -3.669570 -0.851130
O  -4.697380 0.188770 0.931070
H  -4.987760 -2.158220 0.104650
C  -4.474720 1.501390 1.358410
H  -3.768350 1.543670 2.207070
H  -4.082360 2.137520 0.544920
H  -5.445100 1.897170 1.684640
