22

C  0.137460 -0.341090 -0.043820
C  1.162080 0.475530 0.491650
C  0.439290 -1.540390 -0.699210
C  2.517950 0.157400 0.398480
H  0.875650 1.396050 1.004600
C  1.791100 -1.844110 -0.790400
H  -0.337380 -2.203070 -1.083910
C  2.812130 -1.041810 -0.269530
C  3.632520 0.990930 0.984940
O  2.386190 -2.923360 -1.369610
N  4.031150 -1.649050 -0.541000
C  3.710720 -2.722700 -1.172430
H  4.375830 -3.489960 -1.567600
H  4.452990 0.963220 0.246970
C  3.248770 2.445890 1.218260
H  4.126660 3.025450 1.540980
H  2.853020 2.912700 0.302600
H  2.487040 2.544230 2.008250
C  4.159660 0.339290 2.266250
H  4.499250 -0.687820 2.071070
H  5.009640 0.909900 2.672320
H  3.372450 0.302110 3.036020
