18

C  0.089490 0.707430 -0.038170
C  1.363010 0.323310 -0.443040
C  -0.055820 2.064680 0.283570
C  2.474190 1.184270 -0.530750
O  1.744830 -0.946570 -0.789210
C  1.037850 2.942890 0.203240
H  -1.029970 2.457830 0.579370
C  2.305790 2.534370 -0.197820
C  3.575760 0.369850 -0.970760
C  3.059220 -0.886120 -1.099050
Cl  0.789690 4.611450 0.622550
H  3.128790 3.247960 -0.244230
H  4.602510 0.661760 -1.169230
O  3.648060 -2.013850 -1.451710
C  2.830220 -3.140080 -1.706920
H  2.260670 -3.434950 -0.812100
H  2.119680 -2.940360 -2.524050
H  3.509960 -3.949360 -1.997080
