19

C  0.101720 -0.080650 -0.224470
C  1.030900 -0.893280 0.370110
O  0.729520 0.870160 -0.992120
C  2.323580 -0.427140 -0.062000
H  0.789890 -1.729150 1.023620
C  2.068130 0.666950 -0.898710
C  3.660600 -0.823840 0.184050
C  3.057950 1.424480 -1.519940
C  4.667780 -0.070940 -0.437740
N  3.920530 -1.887720 1.010630
C  4.363930 1.024970 -1.261280
H  2.815010 2.267890 -2.166170
H  5.713910 -0.338220 -0.285590
H  5.190130 1.574380 -1.719310
H  3.143540 -2.509960 1.178880
C  5.233150 -2.440400 1.166290
H  5.187760 -3.293450 1.856500
H  5.925590 -1.701710 1.603730
H  5.678130 -2.790830 0.213990
