20

C  0.486110 -0.063460 -0.301840
C  0.924290 -1.160160 0.460810
C  1.444460 0.608050 -1.056020
C  2.281130 -1.566140 0.474120
S  -0.049280 -2.166840 1.494620
C  2.805880 0.220210 -1.080330
H  1.141280 1.470390 -1.658830
C  3.212530 -0.861540 -0.310820
C  2.485820 -2.692360 1.341180
C  1.335850 -3.101850 1.944410
C  3.757930 1.009190 -1.947590
H  4.256960 -1.178420 -0.301860
H  3.454540 -3.168820 1.498700
H  1.216670 -3.931660 2.640880
H  3.681730 2.073180 -1.662060
H  3.388130 0.965550 -2.987080
C  5.213390 0.580190 -1.912350
H  5.821030 1.217380 -2.571510
H  5.338640 -0.459840 -2.251220
H  5.635110 0.654570 -0.897860
