23

C  0.356950 -0.369180 -0.295680
C  1.010990 -1.425110 -0.925130
N  1.383280 0.411780 0.205510
C  0.435230 -2.567180 -1.691660
N  2.368710 -1.284440 -0.783470
C  2.567390 -0.169400 -0.114980
H  1.234290 1.318330 0.631660
C  3.902860 0.400720 0.290580
C  5.010740 -0.424280 -0.360590
H  5.995950 -0.033460 -0.062590
H  4.939690 -1.479370 -0.062980
H  4.933460 -0.391000 -1.456590
C  4.001240 1.860830 -0.170900
H  3.228270 2.494140 0.293210
H  4.979870 2.283430 0.105400
H  3.889410 1.937810 -1.262800
C  4.034490 0.332540 1.819330
H  5.005680 0.740800 2.141090
H  3.243280 0.912770 2.319790
H  3.965240 -0.707710 2.171410
H  0.952480 -2.663330 -2.657670
H  -0.634440 -2.417020 -1.891430
H  0.569320 -3.524320 -1.160760
