18

C  -0.470590 -0.656130 0.219760
C  -1.743140 -0.484650 -0.446410
C  -0.626840 -1.722510 1.092570
C  -2.628770 -1.461540 0.084350
C  -2.221030 0.398560 -1.427760
C  0.355550 -2.355320 2.011790
N  -1.921290 -2.190530 1.006930
C  -3.959240 -1.564110 -0.328960
C  -3.542690 0.298790 -1.841690
H  -1.551650 1.144270 -1.863290
H  -2.293620 -2.953890 1.553590
C  -4.403620 -0.671570 -1.296480
H  -4.627610 -2.319710 0.091100
H  -3.921560 0.977540 -2.609480
H  -5.438250 -0.728100 -1.642820
H  0.350600 -3.451600 1.900980
H  0.138400 -2.126930 3.069090
H  1.364450 -1.998130 1.771280
