24

C  -0.013440 0.374820 -0.465190
C  -0.604550 1.195340 -1.433120
N  -1.052920 -0.321660 0.131150
C  -2.000660 1.025730 -1.403770
H  -0.052180 1.859390 -2.097350
C  -2.279240 0.073410 -0.421260
C  -0.982470 -1.273800 1.113190
H  -2.734950 1.542950 -2.016410
C  -3.486980 -0.495890 0.079320
C  -2.126970 -1.837860 1.586720
H  0.020860 -1.542820 1.440970
C  -3.393290 -1.443060 1.070410
C  -4.796850 0.003130 -0.488420
H  -2.058400 -2.601020 2.362800
H  -4.295050 -1.907680 1.471680
H  -4.637360 0.133100 -1.573730
C  -5.952260 -0.973060 -0.310080
H  -6.847040 -0.603440 -0.833260
H  -5.708860 -1.968510 -0.710590
H  -6.223820 -1.089850 0.751170
C  -5.146150 1.375280 0.096590
H  -4.326920 2.095060 -0.044020
H  -6.050630 1.785830 -0.379170
H  -5.337530 1.292320 1.178180
