18

C  -0.476480 -0.247560 0.034270
C  -1.135990 -1.078720 -0.871620
C  -1.449230 0.290740 0.925520
H  -0.743250 -1.702180 -1.671350
N  -2.469290 -1.076240 -0.568780
C  -2.685760 -0.233930 0.536540
C  -1.225760 1.244670 2.052070
C  -3.501070 -1.745730 -1.172790
C  -4.011360 -0.085560 1.010450
C  -4.775330 -1.601740 -0.710990
H  -3.229980 -2.379480 -2.018300
C  -5.042750 -0.754390 0.403520
H  -4.186070 0.569430 1.865970
H  -5.581230 -2.145130 -1.205870
H  -6.065510 -0.643740 0.768140
H  -1.859910 1.004730 2.919530
H  -1.452230 2.288970 1.770020
H  -0.179210 1.212150 2.385910
