15
RH_Sub20_S.log	Energy: -383079.1575246
S          2.29141        0.08824       -0.21097
H          3.14059       -0.79156        0.36266
C          0.77134       -0.77154        0.29815
H          0.65561       -1.68715       -0.30345
H          0.85812       -1.06884        1.35634
C         -0.45698        0.08657        0.11159
N         -1.58929       -0.66062       -0.13364
C         -0.43438        1.43145        0.18505
H         -1.33787        2.03179        0.07719
H          0.51014        1.95167        0.34192
H         -1.54225       -1.63293        0.13785
C         -2.89077       -0.06214       -0.13238
H         -3.65061       -0.83410       -0.31456
H         -2.97383        0.68435       -0.94003
H         -3.13275        0.45324        0.81868
