13
RH_Sub2.log	Energy: -207988.8381987
O         -1.60054       -1.11673       -0.35652
H         -2.16291       -1.79355        0.03161
C         -1.70344        0.04841        0.42501
H         -2.74638        0.42103        0.44858
H         -1.39772       -0.13874        1.47445
C          0.65811        0.88435       -0.10488
H          1.32170        1.75142       -0.19353
C          1.23457       -0.30685        0.02629
F          2.56079       -0.44139        0.07825
C         -0.81993        1.13165       -0.15889
H         -1.04058        2.06878        0.37920
H         -1.13217        1.30957       -1.20462
H          0.69942       -1.25750        0.08705
