13
RH_Sub2.log	Energy: -410608.7818841
S         -1.75427       -0.85053       -0.26978
H         -2.80629       -1.13780        0.52560
C         -1.26675        0.68475        0.59727
H         -2.15891        1.31665        0.70979
H         -0.89248        0.44244        1.60478
C          1.14541        0.83331       -0.29437
H          1.91467        1.41307       -0.81570
C          1.51018       -0.34795        0.19502
F          2.75639       -0.80186        0.06819
C         -0.21351        1.45296       -0.18553
H         -0.10285        2.44304        0.29275
H         -0.59940        1.66472       -1.19909
H          0.85399       -1.05528        0.71040
