22
RH_Sub11.log	Energy: -217049.1745774
N          1.66026        1.54449       -0.02667
H          1.03486        1.56378       -0.83037
H          2.11932        2.45125        0.01752
C          2.63811        0.48386       -0.17194
H          3.40165        0.67415       -0.95800
H          3.19925        0.40773        0.77769
C         -1.18089        0.13932        0.68489
N         -2.46915        0.53770        0.41258
C         -0.49856       -0.86251        0.10002
H         -0.95321       -1.42492       -0.72331
C          1.99933       -0.86845       -0.46121
H          2.80655       -1.62009       -0.45293
H          1.59652       -0.87336       -1.49075
C          0.88361       -1.27725        0.51403
H          0.90484       -2.37544        0.62673
H          1.11191       -0.86794        1.51257
H         -0.69124        0.71893        1.47425
H         -2.69155        1.48833        0.67182
C         -3.17914        0.00692       -0.71174
H         -4.17999        0.45686       -0.76814
H         -3.30897       -1.08326       -0.60352
H         -2.66243        0.17731       -1.67922
