23
RH_Sub4_O.log	Energy: -266859.6999720
O         -1.26050       -1.68529       -0.83482
H         -1.36305       -1.06656       -1.56308
C         -2.18776       -1.34259        0.17138
H         -3.19844       -1.19128       -0.25940
H         -2.26031       -2.22622        0.82565
C          0.65151        1.41195       -0.16653
H          1.05275        2.28821        0.35434
C          1.42174        0.32159       -0.25013
O          2.67976        0.27881        0.23184
C         -1.80714       -0.13735        1.02026
H         -0.80447       -0.30828        1.44677
H         -2.50564       -0.11371        1.87456
C         -0.74272        1.47891       -0.71159
H         -0.84396        0.77539       -1.55436
H         -0.91334        2.47534       -1.15271
C         -1.84345        1.22332        0.33027
H         -2.82972        1.36660       -0.14829
H         -1.76920        2.00710        1.10346
H          1.04938       -0.60168       -0.71633
C          3.28237       -0.98572        0.24708
H          2.76583       -1.67906        0.93516
H          3.30303       -1.44249       -0.75913
H          4.31581       -0.85213        0.59283
