19
RH_Sub15_O.log	Energy: -483369.2617097
O         -2.37256        1.06906        0.20780
H         -3.19084        1.49611        0.47760
C         -2.68669       -0.19074       -0.34098
H         -3.24315       -0.81511        0.38875
H         -3.33810       -0.08022       -1.23067
C          1.15047        0.55870        0.21517
Cl         2.58006       -0.33729       -0.25527
C          0.95893        1.79192       -0.25194
H          1.68055        2.27682       -0.91124
C         -1.42130       -0.91658       -0.75323
H         -0.86678       -0.28041       -1.46403
H         -1.73024       -1.81195       -1.31780
C          0.21964       -0.20326        1.10391
H         -0.51828        0.50411        1.50487
H          0.79805       -0.61426        1.94770
C         -0.50176       -1.34808        0.38501
H         -1.08306       -1.91833        1.13028
H          0.25591       -2.04395       -0.01167
H          0.03956        2.31691        0.01578
