22
RH_Sub33_S.log	Energy: -609063.7249002
S          1.17311        2.55209       -0.26461
H          1.54911        2.42984        1.02641
C         -0.40662        1.66634       -0.12885
H         -0.98171        2.07250        0.71697
H         -0.95111        1.93967       -1.04425
C          2.00820       -1.91399        0.05051
H          1.55433       -2.85375        0.39243
C          2.59360       -1.87843       -1.14787
H          2.64535       -2.76412       -1.78654
C         -0.30364        0.14569       -0.02623
H          0.22246       -0.23519       -0.91788
C         -1.69236       -0.45411       -0.11397
C          1.88216       -0.74652        0.97721
H          2.43402        0.11205        0.56504
H          2.34533       -0.99748        1.94747
C          0.42276       -0.35390        1.23186
H          0.37436        0.41886        2.01706
H         -0.10654       -1.22733        1.64440
H          3.04825       -0.95831       -1.53023
F         -1.64899       -1.79001       -0.13080
F         -2.33057       -0.06591       -1.22430
F         -2.45691       -0.09527        0.92697
