24
RH_Sub30_S.log	Energy: -457018.1610127
S         -0.68468        1.93807        0.15031
H         -0.50496        1.49179        1.41320
C         -1.22725        0.32526       -0.52469
N         -2.28317       -0.18471        0.31770
H         -1.59027        0.61496       -1.53695
C          2.93870       -0.62918       -0.00078
H          3.32923       -1.64505       -0.15239
C          3.46080        0.37301       -0.71045
H          4.27225        0.20900       -1.42472
C         -0.10179       -0.68917       -0.73137
H          0.65696       -0.23529       -1.38816
H         -0.52997       -1.52428       -1.31118
C          1.81934       -0.49586        0.98222
H          1.60493        0.57109        1.14202
H          2.14052       -0.90991        1.95440
C          0.54608       -1.23169        0.54295
H         -0.19934       -1.20742        1.35550
H          0.79634       -2.29587        0.39558
H          3.09003        1.39749       -0.59910
H         -2.90750        0.58115        0.55656
C         -3.02352       -1.30188       -0.22062
H         -3.88865       -1.50778        0.42612
H         -2.40710       -2.21436       -0.22863
H         -3.39949       -1.14465       -1.25477
