27
aa117_opt_TZ.log	Energy: -362473.6731209
C          1.23861       -0.19354       -0.00004
C          1.60105        1.15056       -0.00009
C          2.93808        1.50238       -0.00004
C          3.91740        0.52135        0.00004
C          3.56039       -0.81793        0.00009
C          2.22567       -1.17564        0.00003
H          0.83311        1.90825       -0.00016
H          3.21958        2.54535       -0.00007
H          4.96066        0.80193        0.00009
H          4.32440       -1.58131        0.00015
H          1.92232       -2.21190        0.00007
C         -0.18532       -0.62722       -0.00007
O         -1.01337        0.41588       -0.00001
O         -0.52010       -1.78889       -0.00012
C         -2.45012        0.23971        0.00003
C         -2.99745        1.66807        0.00012
C         -2.89140       -0.50328       -1.26087
C         -2.89129       -0.50341        1.26089
H         -3.97643       -0.53454        1.30579
H         -2.50860       -1.52031        1.25345
H         -2.51524        0.00688        2.14550
H         -4.08326        1.65113        0.00019
H         -2.65085        2.19986        0.88266
H         -2.65095        2.19995       -0.88241
H         -3.97654       -0.53446       -1.30566
H         -2.51547        0.00714       -2.14547
H         -2.50865       -1.52016       -1.25359
