29
aa149_plan_opt_TZ.log	Energy: -420938.0834287
C         -2.37369        1.04245        0.01043
C         -1.15777        0.36815       -0.02354
N         -1.07889       -1.02093       -0.17094
C         -2.07430       -1.95306       -0.14576
C         -2.40311        2.42120        0.10825
C         -1.22495        3.14625        0.15922
C         -0.01312        2.48135        0.12498
C          0.04120        1.09526        0.04764
C          1.35698        0.42522        0.04927
C          1.67122       -0.53017        1.01480
C          2.91379       -1.13821        1.02272
C          3.85756       -0.80447        0.06592
C          3.55680        0.14822       -0.89358
C          2.31735        0.76166       -0.90062
C         -1.53811       -3.35586       -0.35977
H         -3.28916        0.47761       -0.03907
H         -3.35470        2.92996        0.13855
H         -1.24825        4.22332        0.22912
H          0.91318        3.03526        0.17896
O         -3.24687       -1.71227        0.02606
H          0.94486       -0.77310        1.77815
H          3.14779       -1.87145        1.78078
H          4.82624       -1.28141        0.07194
H          4.29160        0.41447       -1.63901
H          2.08070        1.50140       -1.65166
H         -0.13502       -1.36521       -0.29558
H         -0.77849       -3.59039        0.38296
H         -2.35502       -4.06655       -0.27598
H         -1.09568       -3.43704       -1.35087
