35
aa141_plan_opt_TZ.log	Energy: -446484.7808926
C          1.96533       -1.33001       -0.60981
C          1.62912       -0.02660       -0.26929
N          0.31217        0.44110       -0.52578
C         -0.74540       -0.19571        0.04531
C          3.24368       -1.80402       -0.38192
C          4.19478       -0.96949        0.17870
C          3.85481        0.32427        0.52992
C          2.57164        0.81482        0.32612
C          0.11439        1.50660       -1.48567
O         -1.89843        0.37173       -0.35900
C         -3.16442       -0.12483        0.13038
C         -3.24092        0.00617        1.65147
C         -3.36741       -1.57603       -0.30494
C         -4.19977        0.78389       -0.53539
O         -0.63846       -1.11861        0.81854
C          2.21479        2.20429        0.76107
H          1.21204       -1.96897       -1.04370
H          3.49672       -2.82006       -0.64456
H          5.19779       -1.32905        0.35436
H          4.59404        0.96683        0.98718
H          2.30349        2.90850       -0.06647
H          1.19126        2.23618        1.12745
H          2.88240        2.53299        1.55402
H         -3.28298       -1.65712       -1.38693
H         -2.61606       -2.21101        0.15639
H         -4.35358       -1.91601       -0.00149
H         -4.11963        0.71193       -1.61689
H         -5.20045        0.49033       -0.23289
H         -4.02959        1.81740       -0.24518
H         -2.49849       -0.63443        2.11928
H         -3.05405        1.03650        1.94785
H         -4.22943       -0.28606        1.99461
H         -0.53732        1.16690       -2.29333
H          1.07920        1.78440       -1.90251
H         -0.34915        2.37794       -1.01870
