32
aa140_plan_opt_TZ.log	Energy: -421832.5476735
C          2.13056       -1.12954       -0.00014
C          1.79723        0.22637        0.00006
N          0.46071        0.68741        0.00015
C         -0.63255       -0.14360        0.00031
C          3.45110       -1.53776       -0.00028
C          4.48258       -0.61646       -0.00021
C          4.16640        0.72873       -0.00004
C          2.84813        1.14807        0.00009
C          0.26058        2.12703        0.00005
C         -3.06140       -0.11351       -0.00014
C         -3.22087       -0.96238       -1.26084
C         -4.07434        1.03373       -0.00092
C         -3.22132       -0.96107        1.26138
H          1.35650       -1.87464       -0.00018
H          3.66999       -2.59537       -0.00042
H          5.51249       -0.93963       -0.00032
H          4.95156        1.47105       -0.00001
H          2.66784        2.20923        0.00021
H          0.70690        2.57049        0.89229
H         -0.80187        2.34305        0.00016
H          0.70669        2.57037       -0.89235
O         -0.59655       -1.35104        0.00085
H         -3.05949       -0.35047       -2.14603
H         -2.50202       -1.77655       -1.26025
H         -4.22478       -1.37610       -1.29602
H         -3.93744        1.65274       -0.88393
H         -2.50232       -1.77510        1.26199
H         -5.08455        0.63605       -0.00079
H         -4.22517       -1.37494        1.29652
H         -3.06047       -0.34819        2.14599
H         -3.93762        1.65378        0.88138
O         -1.78069        0.56288       -0.00026
