19
aa182_plan_opt_TZ.log	Energy: -564383.6595239
C         -0.40131       -0.37663       -0.00135
C          0.45214        0.72268       -0.00060
N          1.84173        0.59394       -0.00157
C          2.60574       -0.54273        0.00077
C         -1.76938       -0.16633       -0.00036
C         -2.31159        1.10861        0.00214
C         -1.45347        2.19496        0.00243
C         -0.08476        2.01036        0.00061
Cl        -2.82269       -1.53490       -0.00233
C          4.08831       -0.23004       -0.00516
H          0.57538        2.86628        0.00023
H         -1.85831        3.19545        0.00360
H         -3.38065        1.24576        0.00347
H          0.00259       -1.37478       -0.00256
H          2.34084        1.47274       -0.00573
O          2.16351       -1.66552        0.00944
H          4.34491        0.37499       -0.87238
H          4.35932        0.31452        0.89715
H          4.64735       -1.16030       -0.03956
