50
aa191_opt_TZ.log	Energy: -801213.9459778
C          3.11792        0.04025       -0.88139
C          3.74161       -0.04687        0.36026
N          5.12977       -0.05597        0.51470
C          6.10530        0.02836       -0.44060
C          7.49541       -0.00903        0.16045
O          5.89611        0.11786       -1.62674
C          2.95821       -0.12790        1.51086
C          1.58058       -0.11959        1.42413
C          0.95540       -0.02839        0.18582
C          1.73839        0.05005       -0.95974
C         -0.51870       -0.01214        0.09175
C         -1.22328       -1.21366        0.03702
C         -0.77256       -2.56470        0.03848
C         -1.90811       -3.34776       -0.03360
C         -3.02143       -2.49784       -0.07988
N         -2.60416       -1.22890       -0.03953
B         -3.49924        0.02318       -0.08526
N         -2.57497        1.25369       -0.03524
C         -1.19575        1.20584        0.05732
C         -0.71577        2.54622        0.10113
C         -1.83251        3.35578        0.02817
C         -2.96333        2.53223       -0.05531
C         -4.38446        2.92990       -0.15259
C         -4.45263       -2.86163       -0.16112
C          0.62722       -3.06213        0.09704
C          0.69215        3.01195        0.20610
H          7.66666       -0.96978        0.64182
H          7.61344        0.78096        0.89901
H          8.22782        0.12656       -0.62971
H          5.44188       -0.12782        1.47350
H          3.71657        0.10209       -1.77432
H          3.43455       -0.19753        2.47934
H          1.25790        0.11861       -1.92443
H          0.98134       -0.18045        2.32065
H          1.10676       -2.76675        1.02935
H          1.22010       -2.65504       -0.72059
H          0.63200       -4.14746        0.02960
H         -1.94612       -4.41971       -0.05352
H         -4.57554       -3.94085       -0.16246
H         -4.99067       -2.42883        0.68110
H         -4.88821       -2.43956       -1.06587
F         -4.36015        0.03265        1.00266
F         -4.24406        0.03270       -1.25431
H         -4.94267        2.50777        0.68196
H         -4.81896        2.52061       -1.06364
H         -4.48181        4.01173       -0.15182
H         -1.84671        4.42846        0.03405
H          0.71306        4.09665        0.28009
H          1.26833        2.70968       -0.66740
H          1.17906        2.58839        1.08311
