20
aa211_opt_TZ.log	Energy: -323232.9578414
C         -1.23508        1.05364       -0.00001
C         -0.60975       -0.18832       -0.00001
N          0.78389       -0.34697       -0.00003
C          1.74420        0.62286       -0.00001
O          1.54191        1.80650       -0.00000
O          3.02764        0.18798        0.00001
C          3.38399       -1.17789        0.00002
C         -2.61683        1.12333        0.00001
C         -3.38603       -0.02784        0.00002
C         -2.76334       -1.26458        0.00001
C         -1.38405       -1.34669       -0.00001
H         -0.63825        1.94965       -0.00001
H         -3.09514        2.09119        0.00002
H         -4.46363        0.03612        0.00003
H         -3.35171       -2.17022        0.00001
H         -0.90166       -2.31544       -0.00002
H          1.07874       -1.31243       -0.00004
H          3.02821       -1.69303       -0.89850
H          4.47307       -1.18689        0.00006
H          3.02814       -1.69301        0.89853
