34
aa300_plan_opt_TZ.log	Energy: -399300.0496648
C          2.98920       -1.78568       -0.57764
C          2.74057       -0.85821       -1.57502
C          1.90745        0.21478       -1.31759
C          1.31748        0.36686       -0.06722
C          1.58204       -0.55080        0.94920
C          2.41545       -1.62762        0.67071
C          0.96945       -0.39535        2.30766
C          0.48643        1.58992        0.18711
N         -0.75926        1.59211       -0.34572
C         -1.38252        0.44208       -0.95712
C         -2.37774       -0.25492       -0.02149
C         -2.80103       -1.61491       -0.56939
C         -3.82313       -2.29308        0.33456
O          0.93498        2.54176        0.80184
C         -1.58248        2.76964       -0.19050
H         -4.72191       -1.68618        0.41745
H          2.62266       -2.34689        1.45066
H          3.63867       -2.62694       -0.76993
H         -4.10149       -3.26515       -0.06476
H         -3.41437       -2.43624        1.33240
H         -0.95641        3.56368        0.21170
H         -1.98257        3.07274       -1.15991
H         -0.60602       -0.26975       -1.24185
H         -1.90837       -0.38645        0.95554
H          1.59942       -0.85431        3.06627
H          0.83512        0.65607        2.54823
H         -2.41046        2.58723        0.49776
H         -1.89930        0.76871       -1.86631
H         -3.26243        0.36990        0.11370
H         -3.22689       -1.48580       -1.56705
H         -1.91975       -2.25331       -0.66543
H          1.71148        0.94825       -2.08715
H         -0.00608       -0.88305        2.34167
H          3.19670       -0.96752       -2.54728
