40
aa324_opt_TZ.log	Energy: -495658.6830596
O         -1.04971       -1.69954        0.59754
C         -1.35038       -0.58054        0.22464
N         -0.45067        0.37226       -0.10769
C          1.00060        0.21056       -0.07236
C          1.45621       -0.16593        1.34107
C          2.97760       -0.29738        1.36654
C          1.44183       -0.87962       -1.05550
C          3.16194        1.40827       -0.44116
C          3.59886        0.32285       -1.42369
C          2.96337       -1.00789       -1.02287
C          3.61423        1.03362        0.96923
C          1.63920        1.54165       -0.47125
C          3.41185       -1.38675        0.38744
C         -2.77922       -0.15675        0.08511
C         -3.71576       -1.13365       -0.23800
C         -5.05154       -0.80625       -0.37565
C         -4.54522        1.47323        0.16999
C         -3.20624        1.14983        0.30038
C         -5.46745        0.49992       -0.17715
H         -0.79568        1.23593       -0.49433
H          0.98832       -1.10791        1.62652
H          1.12978        0.60354        2.04532
H          3.29743       -0.56716        2.37887
H          0.97415       -1.82253       -0.77113
H          1.10413       -0.62097       -2.06263
H          3.61206        2.36551       -0.72849
H          4.68729        0.23347       -1.41555
H          3.29313        0.59245       -2.43743
H          3.27396       -1.78707       -1.72754
H          4.70278        0.95014        0.99852
H          3.31954        1.81377        1.67509
H          1.32187        2.32492        0.22249
H          1.31208        1.82204       -1.47652
H          4.49786       -1.50158        0.41506
H          2.96363       -2.33990        0.67356
H         -3.37311       -2.14807       -0.37593
H         -5.77065       -1.56960       -0.63364
H         -6.51072        0.75886       -0.28307
H         -4.87111        2.48864        0.34320
H         -2.50360        1.91493        0.60049
