23
aa58_plan_opt_TZ.log	Energy: -324605.4654325
C         -0.63869       -0.10098       -0.00629
C         -1.29930        1.08756        0.30010
C         -2.68013        1.12837        0.32297
C         -3.42602       -0.00609        0.05042
C         -2.77449       -1.18718       -0.25548
C         -1.39287       -1.23967       -0.28672
H         -0.72830        1.97587        0.50904
H         -3.17665        2.05686        0.56238
H         -4.50469        0.02996        0.07465
H         -3.34307       -2.07914       -0.47511
H         -0.90956       -2.16987       -0.54180
N          0.76132       -0.16608       -0.01422
C          1.45841       -1.43713        0.08130
C          2.88112       -1.04221        0.47756
C          3.03528        0.33036       -0.16327
C          1.61739        0.88370       -0.18769
O          1.31937        2.04244       -0.35456
H          3.70054        1.00194        0.37534
H          3.61852       -1.76341        0.13276
H          1.45305       -1.94987       -0.88919
H          3.38651        0.25899       -1.19490
H          2.95612       -0.95952        1.56213
H          0.97904       -2.07914        0.82334
