24
aa82_plan_opt_TZ.log	Energy: -359127.0888213
C         -0.01221        1.75970        0.00000
C          1.33431        2.14709        0.00000
C          1.66427        3.48517        0.00000
C          0.66746        4.45166        0.00000
C         -0.66751        4.07612        0.00000
C         -1.01022        2.73921        0.00000
H          2.09203        1.37827        0.00000
H          2.70262        3.78459        0.00000
H          0.93299        5.49873        0.00000
H         -1.43984        4.83141        0.00000
H         -2.04273        2.42501        0.00000
N         -0.45062        0.44858        0.00000
N          0.45069       -0.44860        0.00000
C          0.01224       -1.75971        0.00000
C          1.01023       -2.73924        0.00000
C          0.66746       -4.07615        0.00000
C         -0.66751       -4.45165        0.00000
C         -1.66430       -3.48512        0.00000
C         -1.33428       -2.14705        0.00000
H          2.04274       -2.42508        0.00000
H          1.43977       -4.83146        0.00000
H         -0.93307       -5.49871        0.00000
H         -2.70265       -3.78452        0.00000
H         -2.09197       -1.37821        0.00000
