28
aa92_opt_TZ.log	Energy: -420335.5224466
C          0.83604        0.00030       -0.21632
C          1.40236        0.00160       -1.47835
C          2.77935        0.00167       -1.61159
C          3.57590        0.00046       -0.48056
C          2.99912       -0.00081        0.77702
C          1.62003       -0.00090        0.93390
H          0.76347        0.00251       -2.34899
H          3.22543        0.00267       -2.59437
H          4.65142        0.00049       -0.57724
H          3.62791       -0.00173        1.65551
C          0.98415       -0.00235        2.28927
N         -0.60104        0.00014       -0.09886
C         -1.21270        1.24079       -0.03558
C         -1.21257       -1.24069       -0.03777
O         -0.55784        2.25404       -0.04606
C         -2.71999        1.23351        0.06495
O         -0.55761       -2.25385       -0.05020
C         -2.71983       -1.23371        0.06298
H         -3.08701        2.15759       -0.38389
H         -2.97785        1.25959        1.12849
H         -3.08686       -2.15711       -0.38725
H         -2.97756       -1.26142        1.12651
H          1.74126       -0.00176        3.06855
H          0.35678        0.88047        2.41230
H          0.35910       -0.88695        2.41139
C         -3.32398        0.00039       -0.58838
H         -4.40838        0.00023       -0.46803
H         -3.10413        0.00125       -1.65834
