21
aa9_plan_opt_TZ.log	Energy: -300552.1709309
C          0.00000        0.72000       -0.00000
C         -1.27418        1.29156       -0.00000
C         -1.43670        2.66237       -0.00000
C         -0.32884        3.49453       -0.00000
C          0.94032        2.94138       -0.00000
C          1.10625        1.56869        0.00000
H         -2.12779        0.63253       -0.00000
H         -2.43032        3.08651       -0.00000
H         -0.45266        4.56758       -0.00000
H          1.80897        3.58412        0.00000
H          2.10882        1.16942        0.00000
C          0.11637       -0.74656        0.00000
N         -1.03585       -1.41990       -0.00000
C         -1.01862       -2.73572       -0.00000
C          0.14648       -3.48846        0.00000
C          1.35107       -2.80373        0.00000
C          1.34110       -1.42066        0.00000
H         -1.99168       -3.21161       -0.00000
H          0.11208       -4.56665        0.00000
H          2.28919       -3.34107        0.00000
H          2.27490       -0.88205        0.00000
