16
RH_Sub30.log	Energy: -251426.3562089
N          2.41188        1.01068       -0.21349
C          1.71920       -0.13634        0.03310
H          1.97191        1.80992       -0.64462
H          3.41796        0.92779       -0.27934
O          2.27381       -1.19250        0.26451
C          0.22251       -0.01888        0.01276
C         -0.45892        1.19707        0.13585
C         -0.50872       -1.20473       -0.10658
C         -1.85166        1.22734        0.11864
C         -1.89909       -1.17420       -0.13155
H          0.04683       -2.14227       -0.17527
C         -2.57307        0.04269       -0.02156
H         -2.37642        2.17975        0.22396
H         -2.46303       -2.10445       -0.23298
H         -3.66538        0.06734       -0.03708
H          0.09304        2.12941        0.27970
