20
RH.log	Energy: -229380.6378374
N          2.77574        0.95499        0.18839
H          3.30767        1.02772       -0.67732
H          3.36616        1.33109        0.92596
C          2.42996       -0.42810        0.45283
H          3.29657       -1.12176        0.40559
H          2.03760       -0.49723        1.48108
C          1.36040       -0.94096       -0.51302
H          1.33641       -2.04048       -0.45459
H          1.68019       -0.70147       -1.54395
C         -0.02975       -0.41221       -0.27216
C         -0.31196        0.96067       -0.32091
C         -1.07790       -1.29396        0.01638
C         -1.60296        1.42902       -0.08802
C         -2.37160       -0.82743        0.24596
H         -0.87610       -2.36846        0.05979
C         -2.63904        0.53861        0.19384
H         -1.80266        2.50304       -0.12769
H         -3.17365       -1.53632        0.46684
H         -3.65149        0.90904        0.37254
H          0.50618        1.65600       -0.51648
