19
RH_Sub6.log	Energy: -276076.3332547
N         -2.29619       -1.32771       -0.45499
C         -1.69461       -0.22977        0.08671
H         -1.79583       -1.95163       -1.07076
H         -3.30757       -1.32697       -0.48480
O         -2.33753        0.67314        0.58646
C         -0.19404       -0.23941        0.04142
C          0.49376       -1.45344        0.16341
C          0.52555        0.96822       -0.08511
C          1.88408       -1.50064        0.15171
C          1.92287        0.89442       -0.11179
C         -0.14565        2.30574       -0.19147
C          2.60081       -0.31637        0.00598
H          2.40258       -2.45575        0.26097
H          2.49278        1.82064       -0.22436
H          3.69330       -0.33159       -0.01133
H         -0.07438       -2.37667        0.30165
H         -0.65631        2.55930        0.74793
H         -0.92776        2.31162       -0.96445
H          0.59016        3.08726       -0.42671
