25
RH_Sub40.log	Energy: -288673.4814398
N         -1.66368        1.48694       -0.07638
H         -2.03311        1.82401        0.81228
H         -2.25045        1.86699       -0.81459
C         -1.63592        0.03586       -0.10052
N         -2.87710       -0.65911        0.18888
H         -1.34433       -0.25398       -1.12633
C         -0.56056       -0.47569        0.86344
H         -0.73122       -1.55290        0.99926
H         -0.72847        0.00003        1.84807
C          0.85750       -0.24527        0.41587
C          1.40422        1.04211        0.32981
C          1.66297       -1.33254        0.05825
C          2.71592        1.23092       -0.09837
C          2.97673       -1.14681       -0.37024
H          1.25189       -2.34437        0.12036
C          3.50860        0.13814       -0.44946
H          3.12424        2.24308       -0.15896
H          3.58697       -2.01181       -0.64203
H          4.53828        0.28869       -0.78303
H          0.77640        1.89891        0.57922
H         -3.12086       -0.54159        1.17105
C         -3.99092       -0.32359       -0.65957
H         -4.87388       -0.91460       -0.37406
H         -3.75235       -0.58351       -1.70457
H         -4.28883        0.74751       -0.64939
