23
RH_Sub6.log	Energy: -254005.8519069
N          2.69075       -1.03941       -0.68211
H          3.26760       -1.50455        0.01616
H          3.19603       -1.09327       -1.56240
C          2.44451        0.33548       -0.30352
H          3.35761        0.89771       -0.01098
H          2.02739        0.86299       -1.17769
C          1.43755        0.42254        0.84743
H          1.43547        1.45210        1.23550
H          1.80041       -0.21277        1.67373
C          0.04628       -0.00114        0.46129
C         -0.30188       -1.35489        0.50214
C         -0.90408        0.93663        0.00818
C         -1.56558       -1.79280        0.11603
C         -2.17182        0.48324       -0.37341
C         -0.58377        2.40353       -0.06665
C         -2.50829       -0.86698       -0.32277
H         -1.81223       -2.85649        0.15719
H         -2.91101        1.21161       -0.71908
H         -3.50587       -1.19345       -0.62676
H          0.44661       -2.07775        0.83342
H          0.28687        2.60381       -0.71136
H         -0.34810        2.82157        0.92590
H         -1.43351        2.97064       -0.47134
