11
RH_Sub30.log	Energy: -121704.7610005
C          1.18230       -0.25589        0.00028
C          0.70711        1.00821       -0.00025
C         -1.16824       -0.31387        0.00002
C         -0.75598        0.97212        0.00011
H          1.30589        1.92087       -0.00042
H         -1.39904        1.85415        0.00019
H          2.22992       -0.55936        0.00036
C          0.02983       -1.20887       -0.00014
H          0.04650       -1.87865       -0.88072
H          0.04626       -1.87862        0.88047
H         -2.19964       -0.66857        0.00007
