21
RH_Sub6.log	Energy: -266614.8965528
C          0.00031        0.41564       -0.00019
C         -0.45448       -0.94090        0.00008
C         -0.97193        1.45019       -0.00028
C         -2.31828        1.16390       -0.00024
C         -1.84859       -1.20267        0.00031
C         -2.76341       -0.17613        0.00018
H         -2.18419       -2.24317        0.00059
H         -3.83406       -0.39375        0.00047
H         -0.64572        2.49156       -0.00065
C          1.40613        0.68672       -0.00021
C          1.91153        2.09866        0.00044
C          2.28754       -0.37509       -0.00010
H          3.36216       -0.17322        0.00021
C          1.83938       -1.71498       -0.00020
H          2.57108       -2.52637       -0.00033
C          0.49564       -1.99459       -0.00006
H          0.13866       -3.02764        0.00014
H         -3.04783        1.97727       -0.00057
H          3.00973        2.12179        0.00088
H          1.56310        2.65419        0.88613
H          1.56401        2.65484       -0.88523
