16
RH_Sub15.log	Energy: -482474.4309146
C         -3.65747       -0.63940       -0.00030
H         -3.94821        0.41456       -0.00078
C         -2.37918       -1.03413        0.00018
H         -2.16924       -2.10959        0.00056
C         -1.18674       -0.17663        0.00015
C          0.07571       -0.78587        0.00011
C         -1.25081        1.22652        0.00014
C          1.23288       -0.01129       -0.00004
H          0.16008       -1.87442        0.00021
C         -0.08899        1.98798        0.00004
H         -2.22035        1.72771        0.00025
C          1.16653        1.37949       -0.00006
Cl         2.77909       -0.79498       -0.00007
H         -0.15468        3.07852        0.00006
H          2.08420        1.96928       -0.00017
H         -4.46800       -1.37137       -0.00023
