17
RH_Sub27.log	Energy: -204993.8125908
C         -0.44763        0.74534       -0.00490
C          0.82038        1.34625       -0.00622
C         -0.54226       -0.66537        0.00164
C          1.97687        0.57381       -0.00189
C          0.63381       -1.41572        0.01058
C          1.89260       -0.81656        0.00865
C         -1.89119       -1.31897       -0.01343
H          0.55407       -2.50681        0.01592
H          2.79581       -1.42991        0.01415
H         -2.43415        1.10722        0.32430
H          0.89145        2.43780       -0.01346
H          2.95203        1.06724       -0.00353
H         -1.48294        2.49075        0.18747
N         -1.59466        1.51723       -0.06329
H         -2.47976       -1.07305        0.88941
H         -1.80321       -2.41308       -0.05409
H         -2.48623       -0.99343       -0.88377
