15
RH_Sub16.log	Energy: -170274.2934522
C          0.91505        0.00668       -0.00109
C          0.19086        1.20322       -0.00055
C          0.19942       -1.19824       -0.00106
C         -1.20390        1.20049        0.00008
C         -1.19267       -1.20652        0.00009
C         -1.90148       -0.00488        0.00102
H          0.74587       -2.14599       -0.00195
H         -1.72974       -2.15842        0.00007
H         -2.99404       -0.00984        0.00170
C          2.41671        0.00300        0.00077
H          0.73034        2.15459       -0.00133
H         -1.74784        2.14840        0.00004
H          2.81591       -0.54334       -0.86851
H          2.81292       -0.49174        0.90201
H          2.82267        1.02385       -0.02760
