14
Properties=species:S:1:pos:R:3 RH_Sub3_O.log=T Energy:=T -332495.7738688=T pbc="F F F"
O       -2.84036000      -0.83634000       0.00024000
H       -3.79630000      -0.93397000      -0.00041000
C       -2.52845000       0.52292000      -0.00015000
H       -2.94151000       1.05072000      -0.88651000
H       -2.94223000       1.05151000       0.88536000
C       -1.05282000       0.71937000       0.00014000
H       -0.69960000       1.75574000       0.00033000
C       -0.17531000      -0.28114000      -0.00009000
C        1.29831000      -0.06813000      -0.00000000
H       -0.50691000      -1.32206000      -0.00027000
F        1.86942000      -0.62843000      -1.07449000
F        1.86927000      -0.62766000       1.07491000
F        1.63454000       1.22616000      -0.00040000
Kr      -0.87617178       1.23735864       1.00023498
