19
Properties=species:S:1:pos:R:3 RH_Sub2.log=T Energy:=T -304206.8994455=T pbc="F F F"
C        0.03487000      -0.44254000       0.00001000
C        0.36208000       0.94832000      -0.00002000
C        1.06719000      -1.41257000       0.00002000
C        2.38478000      -1.01848000       0.00003000
C        1.73294000       1.31362000      -0.00001000
C        2.71955000       0.35533000       0.00005000
H        1.99203000       2.37542000      -0.00001000
H        3.77033000       0.65449000       0.00007000
H        0.79604000      -2.46943000       0.00005000
C       -1.33723000      -0.79651000       0.00000000
F       -1.64377000      -2.09454000       0.00000000
C       -2.33928000       0.13849000      -0.00003000
H       -3.37884000      -0.19316000      -0.00005000
C       -1.99898000       1.51018000      -0.00004000
H       -2.79800000       2.25487000      -0.00006000
C       -0.68295000       1.90869000      -0.00002000
H       -0.42438000       2.97004000      -0.00003000
H        3.17888000      -1.76863000       0.00006000
Kr      -2.85903803      -0.02734355      -1.00004000
