20
Properties=species:S:1:pos:R:3 RH_Sub40.log=T Energy:=T -205102.3356390=T pbc="F F F"
O       -0.09977000       1.61467000      -0.27576000
H        0.18749000       2.23038000       0.40581000
C        0.34657000       0.33315000       0.07212000
N        1.73725000       0.17461000      -0.31680000
H        0.22991000       0.17737000       1.17307000
C       -1.93087000      -0.83660000      -0.16487000
H       -2.43525000      -1.75514000      -0.49062000
C       -2.61361000       0.02100000       0.59581000
H       -3.64339000      -0.19035000       0.89542000
C       -0.51976000      -0.68858000      -0.64452000
H       -0.01324000      -1.66586000      -0.58023000
H       -0.50212000      -0.42412000      -1.71710000
H       -2.18008000       0.96958000       0.92072000
H        2.17223000       1.09212000      -0.34473000
C        2.49704000      -0.74735000       0.48620000
H        3.54655000      -0.75428000       0.15745000
H        2.11930000      -1.77479000       0.35665000
H        2.47973000      -0.53416000       1.57885000
Xe      -2.27224000      -0.40780000       0.21547000
Xe      -2.18306000      -1.29587000      -0.32774500
