31
Properties=species:S:1:pos:R:3 aa66_opt_TZ.log=T Energy:=T -397145.3792364=T pbc="F F F"
C        0.24866000       1.63268000      -0.34415000
N       -1.00018000       1.26622000      -0.72742000
C        1.27081000       0.56256000      -0.20499000
O        0.47699000       2.80893000      -0.13338000
C        2.21864000       0.69669000       0.80597000
C        3.19748000      -0.26418000       0.97409000
C        3.24621000      -1.35781000       0.12459000
C        2.32084000      -1.48142000      -0.89874000
C        1.33433000      -0.52609000      -1.06868000
H        2.17195000       1.56108000       1.45139000
H        3.92616000      -0.15956000       1.76433000
H        4.01101000      -2.10958000       0.25479000
H        2.36882000      -2.32613000      -1.57045000
H        0.62082000      -0.62092000      -1.87194000
H       -1.68575000       2.00380000      -0.84840000
O       -1.47070000      -0.02305000      -0.89755000
C       -2.19095000      -0.57112000       0.23202000
C       -2.57425000      -1.96687000      -0.25393000
C       -1.29735000      -0.65223000       1.46946000
C       -3.43887000       0.26611000       0.52456000
H       -1.84833000      -1.10505000       2.28891000
H       -0.41561000      -1.25340000       1.26070000
H       -0.97439000       0.33998000       1.77859000
H       -3.12169000      -2.49578000       0.52009000
H       -3.19344000      -1.89186000      -1.14332000
H       -1.67739000      -2.52649000      -0.50383000
H       -4.05703000      -0.24155000       1.25928000
H       -3.16764000       1.24172000       0.92306000
H       -4.01978000       0.40320000      -0.38508000
Xe       1.82758500      -1.00375500      -0.98371000
Xe       0.97757500      -0.57350500      -1.47031000
