19

H  -1.409580 -0.410300 -2.664340
C  -1.734950 0.561850 -2.295410
C  -1.008600 1.729680 -2.549670
C  -3.002500 0.717690 -1.700700
C  -1.522520 3.004150 -2.203170
H  -0.074820 1.662700 -3.110330
N  -3.944320 -0.233090 -1.421840
C  -3.522650 1.983670 -1.327750
C  -2.751900 3.137580 -1.586300
H  -0.930420 3.893630 -2.430100
C  -3.814920 -1.634090 -1.736620
C  -5.042260 0.387390 -0.880770
C  -4.827920 1.743890 -0.794010
H  -3.136460 4.126910 -1.325980
H  -2.807210 -1.978710 -1.466610
H  -3.996520 -1.814860 -2.809470
H  -4.548940 -2.203020 -1.152640
H  -5.913230 -0.200250 -0.594330
H  -5.526600 2.479320 -0.401320
