18

H  -0.269010 1.795090 2.286760
C  -1.232630 1.388490 1.973370
C  -1.538590 0.040270 2.284230
N  -2.101260 2.241530 1.413910
C  -2.815640 -0.443980 1.982440
H  -0.814980 -0.550560 2.846050
C  -3.272870 1.726460 1.103130
Cl  -3.266390 -2.063570 2.390700
C  -3.726740 0.393070 1.343970
N  -4.301690 2.388110 0.486100
C  -5.059280 0.304180 0.833900
C  -5.374790 1.537530 0.313790
H  -4.248990 3.354090 0.193630
H  -5.706340 -0.569200 0.844440
C  -6.614420 1.995750 -0.362850
H  -7.064920 2.859420 0.153230
H  -7.356770 1.187990 -0.383470
H  -6.414150 2.301200 -1.403770
