17

H  0.285730 1.643500 -2.419630
C  1.204690 1.177550 -2.058110
C  1.516550 -0.146480 -2.408050
C  2.352570 1.936490 -1.623390
S  3.253740 -0.425050 -2.196490
C  0.829070 -0.996410 -3.431900
C  3.510320 1.209270 -1.623650
H  2.291840 2.967700 -1.283260
H  1.312890 -0.885870 -4.417000
H  -0.217370 -0.677580 -3.515640
H  0.852600 -2.065580 -3.169090
N  4.747720 1.565060 -1.144210
H  5.533490 1.122530 -1.603510
C  4.959680 2.914050 -0.702880
H  5.988360 3.022110 -0.332650
H  4.275570 3.145760 0.129900
H  4.788360 3.671540 -1.493440
