22

H  -0.292130 1.559620 -2.702200
C  0.482830 1.971130 -2.052260
C  1.674410 1.266530 -1.894320
C  0.289200 3.249250 -1.481170
C  2.725890 1.792550 -1.109670
H  1.815660 0.343300 -2.454910
C  -0.989590 3.977310 -1.739760
C  1.334750 3.742010 -0.705380
C  3.979830 1.049930 -0.917590
C  2.524930 3.030680 -0.507550
H  -1.811090 3.450940 -1.228680
H  -1.219120 3.977920 -2.816040
H  -0.950210 5.015290 -1.387990
Cl  1.223590 5.309400 0.048000
C  4.353700 -0.059650 -1.646520
C  4.959590 1.355950 0.084640
H  3.301670 3.490730 0.102890
S  5.843200 -0.721000 -1.119430
H  3.821460 -0.528260 -2.471930
C  6.012590 0.486370 0.092510
H  4.870390 2.179130 0.792880
H  6.879280 0.488690 0.751750
