20

H  1.029770 -0.463790 -2.708390
C  1.585090 0.313080 -2.180350
C  2.929600 0.158150 -1.794420
C  1.016950 1.580110 -1.989590
C  3.672580 1.200660 -1.210540
S  3.934730 -1.249520 -1.918480
C  1.776120 2.642090 -1.439260
H  0.020580 1.775990 -2.388540
N  4.961950 0.872690 -0.856510
C  3.090920 2.482110 -1.037970
C  5.242370 -0.352560 -1.154780
H  1.301610 3.618950 -1.322310
C  3.908710 3.593740 -0.461090
C  6.551710 -1.009890 -0.889290
H  6.434640 -1.877290 -0.220720
H  7.219460 -0.279030 -0.415890
H  7.017520 -1.369350 -1.819830
H  4.741930 3.855620 -1.132440
H  4.362310 3.289420 0.493680
H  3.298430 4.492010 -0.294460
