28

H  -0.622730 -0.229830 2.764410
C  -1.302320 0.376970 2.161110
C  -2.562130 -0.116960 1.820670
C  -0.975180 1.692230 1.798560
C  -3.512010 0.608280 1.109170
F  -2.859720 -1.372880 2.180860
C  -1.933820 2.452520 1.112900
H  -0.038220 2.137570 2.133150
C  -3.168170 1.924660 0.762690
C  -4.833790 -0.032620 0.765610
Cl  -1.564470 4.090010 0.669270
H  -3.868740 2.548240 0.207450
H  -4.601300 -1.061240 0.432130
C  -5.589120 0.655640 -0.368700
H  -4.937220 0.758560 -1.250390
H  -5.861580 1.680910 -0.060270
C  -6.862070 -0.105110 -0.721260
H  -7.397710 0.406300 -1.537510
H  -6.589680 -1.105450 -1.105730
C  -7.769600 -0.263380 0.494160
H  -8.665160 -0.850190 0.232960
H  -8.131330 0.734050 0.803310
C  -7.029190 -0.909790 1.659880
H  -6.779020 -1.953830 1.397280
H  -7.680350 -0.962710 2.547320
C  -5.742530 -0.164880 1.997280
H  -5.978420 0.848180 2.369670
H  -5.201030 -0.680850 2.804030
