26

H  -0.085190 0.225060 -3.124960
C  -0.834100 0.653680 -2.458080
S  -1.450850 2.254740 -2.743150
C  -1.766480 -0.103820 -1.718260
C  -2.863200 1.945800 -1.796650
C  -2.940620 0.670590 -1.324940
C  -1.821460 -1.532540 -1.762200
H  -3.569430 2.754140 -1.612880
C  -4.075950 0.091790 -0.529680
N  -1.979190 -2.681380 -1.812490
H  -3.616240 -0.548850 0.243360
C  -4.984800 -0.796880 -1.397410
H  -4.393360 -1.574040 -1.901840
H  -5.424800 -0.166210 -2.191090
C  -6.092540 -1.439510 -0.569960
H  -6.745090 -2.042480 -1.221780
H  -5.638500 -2.144310 0.148270
C  -6.911220 -0.401550 0.188830
H  -7.664430 -0.893530 0.825650
H  -7.472520 0.217540 -0.534700
C  -6.016310 0.506060 1.025530
H  -5.542720 -0.086750 1.829270
H  -6.616360 1.283770 1.525870
C  -4.926780 1.148190 0.174950
H  -5.402030 1.795360 -0.585090
H  -4.289800 1.803260 0.788240
