26

H  0.650610 1.806910 -2.089360
C  1.393720 1.059100 -1.813080
C  1.287570 -0.238320 -2.340650
C  2.617610 1.469950 -1.211650
C  2.349390 -1.120630 -2.123670
H  0.469660 -0.486500 -3.016650
C  3.690700 0.597730 -0.963510
C  2.680130 2.878780 -0.970530
C  3.496630 -0.743650 -1.414060
H  2.292410 -2.141790 -2.505180
C  4.996270 1.134740 -0.345850
N  2.659700 4.034280 -0.864130
C  4.383630 -1.848150 -1.191420
N  4.972850 -2.838830 -1.053630
C  6.033010 0.055180 -0.029290
H  6.900780 0.542570 0.439890
H  5.653900 -0.695990 0.677380
H  6.397550 -0.463730 -0.925520
C  5.640060 2.092770 -1.366350
H  5.012480 2.966350 -1.584870
H  6.597600 2.462540 -0.967940
H  5.845520 1.567960 -2.311800
C  4.719350 1.867670 0.978270
H  5.652230 2.331860 1.332850
H  3.966110 2.659450 0.901230
H  4.385440 1.157580 1.746590
