22

H  -0.514000 0.441970 -2.717920
C  -1.463110 0.155030 -2.269600
C  -2.286810 1.035780 -1.555590
C  -2.188770 -1.048360 -2.446990
N  -3.469380 0.394960 -1.290910
C  -2.111450 2.500570 -1.339550
C  -3.419510 -0.877740 -1.834550
H  -1.847000 -1.955620 -2.936860
C  -4.613910 0.949810 -0.614350
H  -1.031700 2.696790 -1.401730
H  -2.426050 2.776580 -0.307930
N  -2.782120 3.280370 -2.359630
C  -4.486220 -1.790630 -1.670440
H  -5.113730 0.165690 -0.029200
H  -5.345730 1.367260 -1.325420
H  -4.288060 1.739570 0.073670
N  -5.372980 -2.527400 -1.521260
H  -3.773610 3.057630 -2.389050
C  -2.589290 4.698290 -2.200130
H  -3.142670 5.246390 -2.977110
H  -1.521700 4.943600 -2.325410
H  -2.899310 5.100260 -1.208850
