16

H  -1.314880 0.056010 -2.713470
C  -1.944880 0.648360 -2.044460
C  -1.998250 2.039230 -2.143460
C  -2.804260 0.024770 -1.131320
C  -2.824610 2.810240 -1.340680
F  -1.230530 2.644420 -3.049420
Br  -2.987680 -1.844620 -1.169240
C  -3.627250 0.779410 -0.275540
C  -3.627670 2.167630 -0.399370
H  -2.825020 3.895300 -1.451060
O  -4.380280 0.178740 0.679900
H  -4.267390 2.743430 0.272490
C  -5.708690 -0.121450 0.314580
H  -6.274070 0.794260 0.065600
H  -5.742900 -0.810020 -0.546330
H  -6.176660 -0.608780 1.179950
