28

H  -1.617100 -0.802890 1.741710
C  -1.593900 0.287630 1.764780
C  -2.198310 1.058130 0.768670
C  -1.245960 1.067800 2.920960
S  -2.333590 2.718430 1.286990
C  -3.060260 0.606900 -0.374060
C  -1.573430 2.384440 2.800050
H  -0.742300 0.653730 3.793650
C  -4.281070 -0.207470 0.059890
H  -2.465700 -0.017440 -1.052890
H  -3.384540 1.487830 -0.954200
H  -1.370180 3.191510 3.502780
H  -3.889920 -1.130720 0.525320
C  -5.109030 -0.615880 -1.157220
H  -4.471670 -1.150990 -1.881310
H  -5.459330 0.298260 -1.672930
C  -6.310910 -1.469850 -0.770820
H  -6.903000 -1.726250 -1.664650
H  -5.951170 -2.426740 -0.351040
C  -7.181890 -0.763550 0.262640
H  -8.021760 -1.410130 0.565540
H  -7.631850 0.134780 -0.198460
C  -6.364690 -0.343160 1.479450
H  -6.008870 -1.247440 2.005830
H  -6.997430 0.203310 2.197760
C  -5.159800 0.504580 1.085600
H  -5.505990 1.464650 0.657730
H  -4.566480 0.762470 1.977410
