16

H  -0.073120 -1.789450 -2.613330
C  -1.025720 -1.839180 -2.084690
C  -1.958580 -0.806610 -2.197760
C  -1.391210 -2.972880 -1.342510
C  -3.191960 -0.886810 -1.547650
H  -1.775160 0.046200 -2.851590
C  -2.606130 -3.045360 -0.685880
Cl  -0.308270 -4.322910 -1.292540
C  -3.526630 -1.983680 -0.753990
F  -4.023470 0.161210 -1.663390
H  -2.880910 -3.918140 -0.093760
O  -4.647490 -2.130710 -0.020300
C  -5.804110 -1.378560 -0.303110
H  -5.694790 -0.325540 -0.003120
H  -6.064100 -1.421110 -1.373220
H  -6.613390 -1.837960 0.279680
