17

H  0.177050 -1.139030 -2.609180
C  1.158460 -1.001410 -2.155120
C  1.887880 -2.137580 -1.718390
C  1.750610 0.262900 -2.131140
N  1.299840 -3.368040 -1.751460
C  3.202020 -1.948860 -1.270560
C  3.066760 0.428020 -1.681380
H  1.211030 1.130150 -2.513200
H  0.279480 -3.343770 -1.659530
H  1.766490 -4.104850 -1.240360
C  3.791760 -0.682960 -1.246650
H  3.778110 -2.804790 -0.917510
Cl  3.743830 2.024560 -1.679630
C  5.210130 -0.552220 -0.753110
F  5.310840 0.296560 0.281510
F  6.033920 -0.110090 -1.702970
F  5.693810 -1.725600 -0.326700
