18

H  1.148390 -0.757080 -2.665260
C  1.606100 0.155850 -2.278430
C  2.993690 0.151440 -1.947790
C  0.890000 1.367130 -2.308070
C  3.624270 1.347830 -1.566180
C  3.649630 -1.112720 -2.053090
C  -0.385400 1.449910 -2.957940
C  1.559390 2.571620 -1.961700
C  2.879000 2.550210 -1.592850
O  4.888850 1.511280 -1.167880
N  4.121120 -2.167110 -2.171420
N  -1.369540 1.565570 -3.560810
H  0.995400 3.503510 -1.977290
H  3.401780 3.461770 -1.300710
C  5.760060 0.431570 -0.928680
H  5.319410 -0.292980 -0.226230
H  6.032650 -0.090990 -1.857210
H  6.661720 0.868340 -0.481560
