17

H  -0.756170 -0.184110 2.893490
C  -1.662860 0.009070 2.317030
C  -2.690340 -0.943400 2.236510
C  -1.840110 1.257220 1.711240
C  -3.846110 -0.628470 1.563510
H  -2.593460 -1.931360 2.689300
C  -3.040890 1.549410 1.045730
H  -1.076230 2.029840 1.804560
F  -4.820120 -1.550010 1.446800
C  -4.090780 0.625380 0.956810
Cl  -3.169450 3.080820 0.239620
N  -5.292530 0.821150 0.292970
H  -5.806760 -0.051330 0.257780
C  -6.160990 1.934240 0.621370
H  -7.062990 1.868270 -0.003250
H  -5.673630 2.891720 0.402250
H  -6.473560 1.944740 1.683280
