21

H  -0.075500 0.390910 -2.853670
C  0.925090 0.575170 -2.468050
C  1.852160 -0.420430 -2.162730
C  1.677920 1.802540 -2.541240
O  3.089550 0.156720 -2.040220
C  1.850180 -1.906290 -2.427360
C  2.970420 1.490340 -2.262220
H  1.287600 2.795830 -2.745090
C  4.207560 2.293670 -2.139370
H  4.983910 1.933300 -2.833220
H  4.622130 2.237700 -1.120320
H  3.996560 3.346320 -2.367060
H  1.098900 -2.361390 -1.765660
C  1.407330 -2.186280 -3.864210
H  1.398030 -3.271080 -4.058850
H  0.393740 -1.799660 -4.033850
H  2.092630 -1.715860 -4.587470
C  3.205910 -2.537730 -2.132270
H  3.545550 -2.331620 -1.108110
H  3.146290 -3.628800 -2.260790
H  3.976300 -2.154080 -2.817810
