24

H  -0.966160 -0.534550 -2.649350
C  -1.872400 -0.265970 -2.104420
C  -2.458730 0.977050 -2.050260
C  -2.808730 -1.166440 -1.480500
O  -3.652250 0.888760 -1.416570
C  -2.148560 2.283200 -2.672710
C  -3.875730 -0.417670 -1.087950
H  -2.670010 -2.235370 -1.346620
H  -2.912800 2.535670 -3.425720
H  -1.169700 2.244670 -3.163300
H  -2.138180 3.097490 -1.931350
C  -5.196090 -0.721910 -0.439150
C  -5.219090 -0.163760 0.990730
H  -6.195910 -0.354550 1.463400
H  -4.439060 -0.636060 1.605400
H  -5.043540 0.922130 0.986610
C  -6.316850 -0.066710 -1.258610
H  -6.329720 -0.456250 -2.288050
H  -7.295920 -0.274640 -0.799220
H  -6.182240 1.023180 -1.309490
C  -5.407130 -2.235240 -0.411280
H  -6.375420 -2.473110 0.054900
H  -5.402640 -2.654510 -1.428530
H  -4.623520 -2.741060 0.169850
