29

H  0.778630 -0.749750 -2.705390
C  1.459050 -0.127020 -2.122180
C  2.735470 -0.563500 -1.722840
C  1.158740 1.217890 -1.878430
C  3.676970 0.279080 -1.097760
S  3.418570 -2.144080 -1.924590
C  2.107550 2.072410 -1.262490
H  0.246770 1.643480 -2.299540
N  4.872570 -0.339360 -0.795840
C  3.366120 1.651760 -0.864770
C  4.890680 -1.579460 -1.153950
H  1.818840 3.111700 -1.116370
C  4.406970 2.614090 -0.289640
C  6.040270 -2.503000 -0.947210
H  5.760910 -3.347830 -0.298210
H  6.858410 -1.945160 -0.474440
H  6.396630 -2.921140 -1.901220
C  4.949620 2.098620 1.050620
H  5.708090 2.797810 1.438250
H  4.144570 2.024440 1.794110
H  5.410340 1.109550 0.936540
C  5.563340 2.733380 -1.295690
H  5.201170 3.106060 -2.266360
H  6.322270 3.438150 -0.918960
H  6.045350 1.758920 -1.454540
C  3.816790 4.006220 -0.057240
H  4.585640 4.660890 0.380400
H  3.477220 4.476000 -0.992760
H  2.965090 3.975320 0.640370
