24

H  1.023460 -1.541200 -2.038610
C  1.542620 -0.585350 -2.053360
C  2.534380 -0.212150 -1.153570
C  1.590750 0.384290 -3.117640
O  3.142630 0.926120 -1.608390
C  3.248960 -0.959940 -0.085530
C  2.563130 1.268590 -2.782150
H  0.947870 0.427160 -3.992490
C  4.408940 -1.872590 -0.553170
H  2.506030 -1.586080 0.424860
H  3.644000 -0.240520 0.648650
H  2.919160 2.188350 -3.239690
C  3.902770 -2.900660 -1.565060
H  4.694790 -3.626540 -1.808850
H  3.035300 -3.450110 -1.168900
H  3.588610 -2.417470 -2.502330
C  5.539310 -1.048440 -1.169450
H  5.916890 -0.296020 -0.458450
H  6.382270 -1.698680 -1.453690
H  5.203670 -0.515010 -2.070570
C  4.927290 -2.597520 0.690840
H  5.770660 -3.260180 0.440150
H  5.275050 -1.881500 1.453100
H  4.136590 -3.215510 1.146100
