16

H  0.582900 0.266570 -2.635070
C  1.585480 0.252610 -2.207240
C  2.339250 -0.952510 -2.124320
C  2.254060 1.433380 -1.910600
C  3.677340 -0.851830 -1.675940
N  1.775370 -2.124950 -2.460470
F  1.603450 2.580090 -2.051260
N  3.494550 1.543260 -1.485780
C  4.160980 0.410090 -1.371460
H  4.312150 -1.726350 -1.552320
Cl  5.791540 0.529420 -0.766390
H  0.749400 -2.110700 -2.527660
C  2.457940 -3.382650 -2.402450
H  1.770660 -4.172870 -2.732830
H  2.804600 -3.638730 -1.384100
H  3.335280 -3.401680 -3.071400
