16

H  -0.398940 -1.072000 -2.778560
C  -1.280530 -0.530120 -2.438030
C  -1.308610 0.868580 -2.456760
C  -2.519480 -1.177470 -2.166400
N  -2.432140 1.581860 -2.234680
H  -0.428090 1.420490 -2.793590
N  -3.622800 -0.466640 -1.895700
N  -2.649390 -2.516980 -2.163120
C  -3.502460 0.859140 -1.952530
C  -4.715920 1.601990 -1.658340
N  -5.680240 2.188500 -1.399940
H  -3.596210 -2.844290 -2.016080
C  -1.621630 -3.446610 -2.545120
H  -1.817830 -4.419430 -2.073910
H  -0.636270 -3.093150 -2.207680
H  -1.570850 -3.595820 -3.639160
