17

H  -2.125400 1.624030 1.623760
C  -2.307610 0.551650 1.556060
C  -1.341160 -0.333080 2.041520
C  -3.493190 0.063120 1.016390
C  -1.532710 -1.738090 2.017000
H  -0.465680 0.057710 2.561690
C  -3.696560 -1.315800 0.933520
I  -4.992760 1.388830 0.375190
C  -2.724170 -2.181850 1.402100
N  -0.585950 -2.557150 2.541640
H  -4.596850 -1.744150 0.490460
F  -2.935900 -3.501390 1.255540
H  0.304290 -2.093430 2.735710
C  -0.738230 -3.943880 2.878700
H  0.142750 -4.251510 3.459220
H  -0.811600 -4.604280 1.998040
H  -1.628720 -4.122360 3.503990
