16

H  -0.380100 -1.037140 -2.987980
C  -1.324020 -1.098240 -2.448050
C  -2.245400 -0.077740 -2.317370
C  -1.939640 -2.288470 -1.921060
O  -3.376600 -0.581880 -1.713430
C  -2.424140 1.217950 -3.013270
C  -3.162590 -1.892090 -1.477960
H  -1.492800 -3.271630 -1.821750
H  -3.154960 1.112960 -3.833180
H  -1.468770 1.546440 -3.438560
H  -2.794830 2.004710 -2.338640
O  -4.094660 -2.557260 -0.805310
C  -5.358670 -1.950650 -0.663730
H  -5.291560 -1.010890 -0.092480
H  -5.814120 -1.733110 -1.643960
H  -5.984940 -2.668270 -0.120130
