17

H  -0.502700 -1.517660 -2.625980
C  -1.242600 -1.702420 -1.851310
C  -2.664390 -1.588650 -1.963690
C  -1.000380 -2.427830 -0.674600
C  -3.181890 -2.220580 -0.868200
H  -3.234710 -1.085220 -2.740300
O  -2.200540 -2.747870 -0.099840
C  0.129170 -3.335120 -0.299360
C  -4.518500 -2.316630 -0.410100
H  1.070090 -2.855230 -0.612220
O  -0.007280 -4.620110 -0.847200
H  0.125550 -3.451280 0.791600
N  -5.622570 -2.363350 -0.053870
C  0.294150 -4.699060 -2.207860
H  -0.444710 -4.168870 -2.838650
H  1.291530 -4.274490 -2.432950
H  0.285900 -5.761880 -2.488080
