16

H  -0.528800 2.261380 1.723550
C  -1.405550 1.703940 1.402390
C  -1.799570 0.472620 1.927730
C  -2.571160 2.208910 0.720070
O  -3.110830 0.231650 1.611560
H  -1.407860 -0.090450 2.770840
C  -3.548500 1.274510 0.865240
H  -2.655500 3.144110 0.171960
C  -4.940150 1.191370 0.340840
O  -5.919350 1.024430 1.325500
H  -5.033680 0.321600 -0.328380
H  -5.122260 2.100960 -0.266560
C  -6.012980 2.092780 2.218970
H  -5.082650 2.240170 2.798840
H  -6.243780 3.045470 1.700700
H  -6.830570 1.868630 2.917980
