18

H  0.978930 0.417560 -2.981510
C  1.450750 -0.345660 -2.367780
C  1.040410 -1.662880 -2.196540
C  2.831530 -0.324200 -1.914390
O  2.043620 -2.442760 -1.676380
H  0.239530 -2.220430 -2.676540
C  3.828740 0.650750 -1.839090
C  3.118710 -1.632970 -1.501960
C  5.080470 0.267390 -1.369400
H  3.623020 1.681330 -2.130060
C  4.352900 -2.046040 -1.003170
C  5.334680 -1.052170 -0.963140
H  5.883110 1.005810 -1.305920
C  4.572670 -3.450810 -0.538900
H  6.328780 -1.315960 -0.591820
H  4.292260 -4.178240 -1.316480
H  3.949190 -3.671320 0.343190
H  5.623330 -3.619560 -0.265870
