22

H  0.331360 1.642920 -2.506050
C  1.013060 1.980570 -1.729020
C  2.438560 2.043320 -1.764320
C  0.621750 2.666030 -0.583500
C  2.818130 2.725380 -0.639820
H  3.106520 1.619160 -2.509760
O  1.726350 3.110980 0.070890
C  -0.669940 3.286980 -0.195370
C  4.098810 3.001630 -0.108030
H  -1.461180 2.531040 -0.251470
C  -1.057760 4.488950 -1.071210
H  -0.587230 3.602130 0.856210
N  5.164660 3.205250 0.305810
H  -1.216400 4.095290 -2.091630
C  -2.378110 5.064980 -0.575150
H  -2.728860 5.881930 -1.224520
H  -3.163730 4.294400 -0.541750
H  -2.269090 5.472840 0.443890
C  0.031110 5.551930 -1.131570
H  0.965150 5.158010 -1.560620
H  -0.284940 6.405240 -1.751610
H  0.263960 5.936580 -0.124740
