16

H  1.147570 -0.197460 2.846740
C  1.705170 -0.544820 1.977210
S  3.361590 -0.041980 1.747750
C  1.429910 -1.718380 1.265080
C  3.659730 -1.349660 0.637840
C  2.570560 -2.156730 0.501480
H  0.584950 -2.362270 1.508940
C  4.976060 -1.425030 -0.070270
H  2.562570 -3.036500 -0.143800
H  5.035190 -0.637850 -0.839630
H  5.031190 -2.402140 -0.593390
O  6.079290 -1.225160 0.764890
C  6.252080 -2.228890 1.722430
H  5.394180 -2.295890 2.416720
H  6.392890 -3.222480 1.252370
H  7.154020 -1.983340 2.299770
