20

H  0.693100 -0.699900 -3.168370
C  0.906330 -1.582920 -2.560890
C  -0.009630 -2.640900 -2.476650
C  2.184290 -1.719570 -1.973050
C  0.370960 -3.761470 -1.724710
C  -1.298150 -2.637880 -3.239000
N  2.529670 -2.811070 -1.289030
C  3.229350 -0.657230 -2.142660
C  1.634450 -3.785480 -1.151570
H  -0.306930 -4.610190 -1.606360
H  -1.239680 -3.361700 -4.067890
H  -1.521100 -1.651470 -3.664000
H  -2.142220 -2.944910 -2.603550
H  3.309290 -0.138180 -1.173560
H  2.861570 0.086270 -2.860990
C  4.588950 -1.205150 -2.549290
H  1.950070 -4.651520 -0.557020
H  4.938980 -1.948990 -1.819540
H  5.332460 -0.395460 -2.603550
H  4.552170 -1.697860 -3.534080
