17

H  -0.093710 1.435440 2.584950
C  0.895540 1.265810 2.165950
O  1.665450 2.362870 1.958080
C  1.701890 0.125160 2.204600
C  2.965620 1.954220 1.805110
C  3.047980 0.597610 1.949760
H  1.427850 -0.817250 2.672020
C  3.965340 2.999660 1.495920
N  4.155150 -0.218670 1.763870
H  3.797170 3.460110 0.507800
H  4.979240 2.574310 1.490700
H  3.942910 3.808510 2.244770
H  5.031280 0.288640 1.787480
C  4.205940 -1.490770 2.436680
H  5.135300 -2.010090 2.162350
H  3.372800 -2.128500 2.103500
H  4.158410 -1.424530 3.542380
