21

H  -0.067760 1.759390 -2.280910
C  -0.997800 1.537110 -1.761170
O  -1.691150 2.626990 -1.296850
C  -1.902640 0.480220 -1.959480
C  -2.990950 2.264080 -1.167490
C  -3.206990 0.984920 -1.574990
H  -1.713720 -0.378390 -2.600710
H  -3.653770 3.024480 -0.762810
C  -4.535330 0.283490 -1.738060
C  -4.464720 -1.158610 -1.229340
H  -5.401750 -1.690110 -1.459300
H  -3.635870 -1.714280 -1.691700
H  -4.320200 -1.185250 -0.141560
C  -5.630060 1.029170 -0.972800
H  -5.760470 2.054330 -1.352650
H  -6.595960 0.511440 -1.080820
H  -5.389730 1.087640 0.100450
C  -4.881470 0.266060 -3.235680
H  -5.847270 -0.237020 -3.406580
H  -4.946810 1.289670 -3.634030
H  -4.112740 -0.270050 -3.813020
