27

H  -0.372780 1.787880 -2.602360
C  0.384630 2.185960 -1.924600
C  1.586490 1.492050 -1.781400
C  0.137350 3.394090 -1.251060
C  2.586000 1.977820 -0.912030
H  1.771480 0.616090 -2.402470
C  -1.176110 4.087160 -1.435490
C  1.136630 3.888960 -0.397830
C  3.857630 1.259380 -0.740900
C  2.330260 3.163980 -0.228100
H  -1.973270 3.345710 -1.571610
H  -1.169340 4.754020 -2.315290
H  -1.424140 4.696220 -0.555270
N  0.951790 5.087160 0.312200
C  4.332250 0.290850 -1.599890
C  4.754260 1.445150 0.363530
H  3.095550 3.586000 0.428310
S  5.818190 -0.383220 -1.074870
H  3.879040 -0.060490 -2.524900
C  5.847270 0.627510 0.315450
H  4.572790 2.140580 1.182640
H  6.665430 0.558440 1.030690
H  1.619900 5.156140 1.072240
C  0.894250 6.327790 -0.432430
H  0.743380 7.163600 0.266690
H  0.042410 6.327460 -1.125470
H  1.807260 6.530680 -1.027080
