16

H  -1.112120 1.125110 -2.567870
C  -1.002670 1.771670 -1.696100
C  -0.343560 3.035450 -1.715260
C  -1.797540 1.584490 -0.547030
C  -0.619910 3.798610 -0.608790
H  0.337200 3.361290 -2.501800
S  -1.744130 3.016670 0.468180
C  -3.010220 0.705860 -0.528780
C  0.000730 5.019320 -0.251910
H  -2.811850 -0.123580 -1.219130
C  -4.279610 1.380500 -0.980440
H  -3.200930 0.255380 0.452130
N  0.528120 6.010140 0.048390
F  -4.727430 2.277600 -0.092190
F  -5.248800 0.467040 -1.134260
F  -4.137890 2.012600 -2.148310
