21

H  -0.667390 0.224340 2.985580
C  -1.400590 0.470210 2.216410
S  -2.978510 -0.251870 2.246040
C  -1.388400 1.610040 1.416280
C  -3.642200 0.910730 1.133520
C  -2.673480 1.823700 0.806370
H  -0.621380 2.381860 1.470760
C  -5.094620 0.814970 0.697350
Cl  -2.902270 3.162910 -0.268240
C  -5.180200 0.678190 -0.827760
H  -6.235290 0.640130 -1.142750
H  -4.699460 1.522710 -1.338560
H  -4.689990 -0.247590 -1.161180
C  -5.768890 -0.407660 1.327610
H  -5.753510 -0.358810 2.427510
H  -6.821040 -0.455590 1.008820
H  -5.277630 -1.343000 1.017230
C  -5.834950 2.077770 1.162540
H  -6.892890 2.028910 0.858970
H  -5.793690 2.169880 2.258330
H  -5.393210 2.984120 0.726630
