21

H  -1.224270 -0.418230 2.730140
C  -1.852310 0.199270 2.087460
C  -3.150570 -0.215600 1.751600
C  -1.396270 1.458350 1.689860
Cl  -3.712890 -1.755210 2.291860
C  -3.959760 0.620590 0.992050
C  -2.227520 2.327710 0.944360
H  -0.424400 1.789520 2.057320
C  -3.498530 1.886390 0.600690
Cl  -5.545410 0.122310 0.512430
C  -1.689310 3.676270 0.520020
H  -4.171750 2.508770 0.012270
H  -0.811970 3.445250 -0.109570
C  -2.654850 4.499990 -0.319010
H  -2.168560 5.430740 -0.647470
H  -2.981950 3.960310 -1.219860
H  -3.553040 4.780540 0.255050
C  -1.191400 4.483510 1.720240
H  -0.405500 3.951790 2.275010
H  -0.770270 5.445260 1.388420
H  -2.016320 4.698960 2.417940
