25

H  -0.328100 1.326810 -2.889380
C  0.408240 1.873440 -2.296020
C  1.638030 1.284390 -2.009300
C  0.137400 3.201150 -1.898330
C  2.642970 1.974860 -1.289470
H  1.853220 0.297260 -2.415290
C  -1.187890 3.820110 -2.210630
C  1.136580 3.886540 -1.218110
C  3.917270 1.297010 -0.987260
C  2.363960 3.287910 -0.911140
H  -1.969950 3.321830 -1.616420
H  -1.446840 3.693790 -3.273240
H  -1.199460 4.894570 -1.977670
H  0.967210 4.925030 -0.920820
C  4.385240 0.242030 -1.742740
C  4.791310 1.560720 0.137500
H  3.118470 3.884510 -0.401270
S  5.826970 -0.438000 -1.122100
H  3.946710 -0.165110 -2.651640
C  5.847430 0.685750 0.173750
C  4.615540 2.625160 1.175430
H  6.641530 0.651600 0.918700
H  5.241410 2.411900 2.053170
H  3.571510 2.696750 1.510300
H  4.908210 3.617010 0.794050
