19

H  -1.298480 0.231640 2.865920
C  -2.054920 0.637480 2.191660
C  -3.265450 -0.019860 1.990290
C  -1.810520 1.868960 1.557950
C  -4.236990 0.516410 1.129150
H  -3.437050 -0.971830 2.492240
C  -2.822880 2.405330 0.714900
C  -0.692150 2.767940 1.697020
C  -4.021640 1.739490 0.488060
O  -5.413270 -0.096160 0.851310
S  -2.355700 3.960420 0.093000
C  -0.860800 3.912060 0.990780
H  0.191380 2.523280 2.283700
H  -4.800890 2.141200 -0.160640
H  -0.172970 4.753320 0.921510
C  -5.775270 -1.224730 1.596290
H  -5.085820 -2.071040 1.430940
H  -5.812440 -1.006060 2.678030
H  -6.778730 -1.515640 1.258760
