33
Properties=species:S:1:pos:R:3 aa110_opt_TZ.log=T Energy:=T -362178.2966333=T pbc="F F F"
C       -1.20206000      -0.34614000       0.19842000
C       -1.96791000      -1.45370000      -0.13933000
C       -3.29084000      -1.30635000      -0.51397000
C       -3.85703000      -0.04368000      -0.54444000
C       -3.10192000       1.05947000      -0.18916000
C       -1.77123000       0.92809000       0.18629000
H       -1.51372000      -2.43216000      -0.10032000
H       -3.87871000      -2.17283000      -0.77847000
H       -4.88990000       0.08203000      -0.83522000
H       -3.55275000       2.04222000      -0.19669000
C       -0.97739000       2.13778000       0.58564000
C        0.22549000      -0.54821000       0.58029000
N        1.09097000      -0.02139000      -0.33886000
N        0.45285000      -1.17453000       1.65540000
H        0.65902000       0.41699000      -1.13601000
C        2.54779000       0.02579000      -0.31621000
C        2.98675000       0.74721000      -1.59367000
C        3.04061000       0.82146000       0.90065000
C        3.13855000      -1.39105000      -0.32113000
H        4.07043000       0.81974000      -1.63039000
H        2.64952000       0.20310000      -2.47384000
H        2.57595000       1.75470000      -1.62514000
H        4.12674000       0.86646000       0.90253000
H        2.64948000       1.83624000       0.86548000
H        2.71291000       0.36525000       1.83044000
H        4.22157000      -1.34216000      -0.40303000
H        2.88791000      -1.93207000       0.58655000
H        2.74858000      -1.95239000      -1.16746000
H       -0.24725000       1.87983000       1.34952000
H       -0.44465000       2.55206000      -0.27243000
H       -1.63564000       2.91216000       0.97420000
H        1.42880000      -1.31183000       1.89424000
He      -2.77704071       1.78866910      -2.10096480
