28
Properties=species:S:1:pos:R:3 aa22_opt_TZ.log=T Energy:=T -419697.1728419=T pbc="F F F"
C        0.61120000      -0.12596000      -0.00040000
C       -0.16359000       1.05210000      -0.00022000
C       -1.54001000       0.96633000       0.00002000
C       -2.17531000      -0.27884000       0.00003000
C       -1.41377000      -1.43613000      -0.00029000
C       -0.02921000      -1.35180000      -0.00051000
O        0.54444000       2.22919000      -0.00025000
H       -2.16797000       1.84164000       0.00020000
O       -3.53931000      -0.23003000       0.00038000
H       -1.87264000      -2.41102000      -0.00035000
H        0.56543000      -2.24954000      -0.00076000
N        2.00245000       0.03181000      -0.00045000
H        2.28132000       1.00306000       0.00023000
C        2.96971000      -0.92323000      -0.00042000
O        2.75599000      -2.11652000      -0.00089000
C        4.37732000      -0.35728000       0.00143000
H        4.39414000       0.72829000      -0.01206000
H        4.89626000      -0.71801000       0.88702000
H        4.90798000      -0.74047000      -0.86750000
C       -4.24758000      -1.44537000       0.00065000
H       -5.30177000      -1.17221000       0.00102000
H       -4.02787000      -2.03892000      -0.89261000
H       -4.02723000      -2.03890000       0.89376000
C       -0.17621000       3.43743000      -0.00017000
H        0.57327000       4.22789000      -0.00037000
H       -0.80139000       3.53042000      -0.89331000
H       -0.80104000       3.53051000       0.89319000
He       0.26779139      -1.80032408      -2.00063494
