21
Properties=species:S:1:pos:R:3 aa79_plan_opt_TZ.log=T Energy:=T -310615.4628901=T pbc="F F F"
C        0.00000000       0.69698000      -0.00000000
C       -1.20450000       1.39926000      -0.00000000
C       -1.20067000       2.78066000      -0.00000000
C        0.00003000       3.47364000      -0.00000000
C        1.20071000       2.78063000      -0.00000000
C        1.20452000       1.39924000       0.00000000
H       -2.12903000       0.84350000      -0.00000000
H       -2.13543000       3.32224000      -0.00000000
H        0.00004000       4.55403000      -0.00000000
H        2.13549000       3.32221000       0.00000000
H        2.12904000       0.84347000       0.00000000
C       -0.00001000      -0.76635000       0.00000000
N       -1.17982000      -1.38803000      -0.00000000
C       -1.17496000      -2.70635000       0.00000000
C       -0.00002000      -3.44588000       0.00000000
C        1.17492000      -2.70637000       0.00000000
N        1.17979000      -1.38805000       0.00000000
H       -2.14896000      -3.18121000      -0.00000000
H       -0.00004000      -4.52317000       0.00000000
H        2.14891000      -3.18125000       0.00000000
He      -1.66805000       3.05145000      -2.00000000
