19
Properties=species:S:1:pos:R:3 RH_Sub7.log=T Energy:=T -286144.7181617=T pbc="F F F"
N        2.43681000      -0.61059000      -0.35685000
C        1.67902000       0.46854000       0.01959000
H        2.01447000      -1.34640000      -0.91248000
H        3.41739000      -0.40853000      -0.51187000
O        2.19086000       1.52593000       0.33067000
C        0.19228000       0.27753000       0.01851000
C       -0.56613000       1.45338000      -0.03686000
C       -0.47162000      -0.97129000       0.07081000
C       -1.95199000       1.42980000      -0.09458000
C       -1.87618000      -0.98241000       0.01134000
H       -0.36873000      -2.97010000       0.38400000
C       -2.60406000       0.19545000      -0.07865000
H       -2.52061000       2.35988000      -0.15011000
H       -2.39664000      -1.94368000       0.04924000
H       -3.69502000       0.14775000      -0.12355000
H       -0.01121000       2.39397000      -0.03989000
H        1.07216000      -2.15345000       0.68526000
N        0.21367000      -2.17698000       0.14443000
He      -3.06307492       0.07256063      -2.09677407
