11
Properties=species:S:1:pos:R:3 RH_Sub5_S.log=T Energy:=T -612037.5238940=T pbc="F F F"
S       -2.18896000      -0.63129000      -0.06031000
H       -3.37267000      -0.22532000       0.44143000
C       -1.37799000       0.99943000       0.03610000
H       -1.74475000       1.64048000      -0.78181000
H       -1.66674000       1.48900000       0.98129000
C        0.11279000       0.91545000      -0.03921000
H        0.63609000       1.86584000      -0.19082000
C        0.83051000      -0.20125000       0.07398000
Cl       2.55257000      -0.22142000      -0.00838000
H        0.38574000      -1.18707000       0.23211000
Ne       0.37444000       1.39064500      -0.11501500
