25
Properties=species:S:1:pos:R:3 aa262_plan_opt_TZ.log=T Energy:=T -325203.9236698=T pbc="F F F"
C        0.93122000      -1.15324000      -0.00004000
C        0.25019000       0.06498000      -0.00007000
C       -1.21927000       0.05775000      -0.00005000
N       -1.79506000      -1.14656000      -0.00005000
C       -3.10794000      -1.23778000       0.00002000
C       -3.95472000      -0.13933000       0.00007000
C       -3.37198000       1.11797000       0.00007000
C       -1.99318000       1.22249000       0.00001000
C        2.31052000      -1.19790000      -0.00002000
C        3.06154000      -0.02933000      -0.00001000
C        4.55903000      -0.05982000       0.00012000
C        2.38549000       1.18602000      -0.00006000
C        1.00619000       1.23731000      -0.00008000
H        0.35035000      -2.06184000      -0.00004000
H        2.81371000      -2.15466000       0.00001000
H        4.92885000      -1.08198000      -0.00078000
H        4.94841000       0.45076000       0.88036000
H        4.94865000       0.45245000      -0.87902000
H        2.95312000       2.10627000      -0.00007000
H        0.52660000       2.20408000      -0.00013000
H       -1.53325000       2.19748000       0.00002000
H       -3.98529000       2.00839000       0.00012000
H       -5.02642000      -0.26287000       0.00012000
H       -3.50187000      -2.24690000      -0.00002000
Ne       2.66930500       1.64614500      -0.00006500
