20
Properties=species:S:1:pos:R:3 RH_Sub3.log=T Energy:=T -462818.3396860=T pbc="F F F"
N        0.83620000       2.74219000       0.70374000
C        0.26200000       1.85579000      -0.15434000
H        1.36971000       2.42717000       1.50129000
H        0.46981000       3.68602000       0.70815000
O       -0.57650000       2.16602000      -0.97013000
C        0.81690000       0.45635000      -0.05888000
C        2.20290000       0.28076000      -0.10068000
C       -0.01085000      -0.67713000      -0.00018000
C        2.76609000      -0.99341000      -0.10403000
C        0.55860000      -1.94956000       0.01081000
C       -1.51746000      -0.56192000       0.07848000
C        1.94103000      -2.11173000      -0.04883000
H        3.85121000      -1.10934000      -0.15231000
H       -0.09249000      -2.82206000       0.07683000
H        2.37012000      -3.11598000      -0.04614000
H        2.84549000       1.16254000      -0.15651000
F       -2.05727000      -1.70554000       0.52571000
F       -2.07064000      -0.30968000      -1.10198000
F       -1.89104000       0.39891000       0.92843000
Ne       3.30865000      -1.05137500      -0.12817000
