19
Properties=species:S:1:pos:R:3 RH_Sub3_O.log=T Energy:=T -475279.6279603=T pbc="F F F"
O       -1.78875000       2.42097000      -0.34985000
C       -0.70311000       1.75353000       0.07048000
H       -1.57984000       3.36157000      -0.24456000
O        0.28367000       2.31557000       0.46137000
C       -0.90104000       0.27315000       0.02062000
C       -2.21084000      -0.21862000       0.02839000
C        0.17377000      -0.63960000       0.01156000
C       -2.46786000      -1.58562000       0.05407000
C       -0.09663000      -2.00724000       0.02644000
C        1.63064000      -0.21585000      -0.05020000
C       -1.40598000      -2.48243000       0.05699000
H       -3.49864000      -1.94609000       0.06942000
H        0.73547000      -2.71072000       0.00527000
H       -1.58990000      -3.55889000       0.07403000
H       -3.03373000       0.49638000       0.02228000
F        2.41495000      -1.27541000      -0.30529000
F        2.05646000       0.30290000       1.09596000
F        1.85009000       0.66158000      -1.02717000
Ne       0.31942000      -2.35898000       0.01585500
