31
Properties=species:S:1:pos:R:3 aa238_plan_opt_TZ.log=T Energy:=T -652154.9580636=T pbc="F F F"
C       -1.69075000       1.46276000      -0.33313000
C       -0.66540000       0.57887000       0.01129000
C        0.72783000       1.10496000      -0.04049000
O        0.93964000       2.25362000      -0.36391000
C        1.86082000       0.15170000       0.28660000
C        3.12604000       0.91819000       0.67502000
C        4.27151000      -0.04807000       0.95488000
C        4.54851000      -0.91953000      -0.26654000
C        3.28978000      -1.67820000      -0.67622000
C        2.14520000      -0.70834000      -0.95536000
C       -3.01344000       1.07306000      -0.31049000
C       -3.32695000      -0.22675000       0.06041000
Cl      -4.97469000      -0.73313000       0.09735000
C       -2.32678000      -1.12453000       0.40487000
C       -1.00507000      -0.72170000       0.38226000
H        2.92389000       1.53059000       1.55620000
H        3.39645000       1.59201000      -0.13946000
H        5.16892000       0.51267000       1.22258000
H        4.01163000      -0.68545000       1.80420000
H        4.87369000      -0.28673000      -1.09522000
H        5.35281000      -1.62494000      -0.04774000
H        3.48769000      -2.27531000      -1.56876000
H        3.00028000      -2.36191000       0.12592000
H        1.24869000      -1.25762000      -1.25129000
H        2.41976000      -0.04839000      -1.78137000
H        1.57180000      -0.49768000       1.11776000
H       -1.41924000       2.46806000      -0.61925000
H       -3.79759000       1.76462000      -0.57592000
H       -2.58605000      -2.13200000       0.69141000
H       -0.24804000      -1.43817000       0.65860000
He      -3.47420977       1.70747850       0.51176560
