18

C  0.164430 0.217660 -1.615660
C  -0.744310 -0.872980 -1.799960
C  -0.052960 1.448930 -0.954950
C  -2.028660 -1.018370 -1.341460
H  -0.337240 -1.715270 -2.364110
C  -1.240480 1.907020 -0.333020
H  0.746280 2.188420 -1.060400
C  -2.831720 -0.100270 -0.604920
Cl  -2.817260 -2.528340 -1.700460
C  -2.511340 1.156300 -0.167230
C  -1.429390 3.149150 0.246220
H  -3.839700 -0.454570 -0.372630
C  -3.407440 2.022800 0.533280
C  -2.755230 3.214620 0.774450
H  -0.680960 3.940100 0.295070
H  -4.429300 1.765550 0.809590
H  -3.179770 4.078620 1.287100
H  1.084690 0.125210 -2.196680
