30

C  0.788650 -1.058700 -1.223790
C  -0.201760 -1.396550 -0.219590
C  0.084620 -0.397140 -2.279880
C  -1.480100 -0.814710 -0.641070
C  0.146700 -2.165380 0.887360
C  -1.237940 -0.228220 -1.922110
H  0.533090 -0.072610 -3.219290
C  -2.688160 -0.779100 0.108680
C  -0.684330 -2.585960 1.921210
H  1.209730 -2.432800 0.928560
H  -1.959700 0.312550 -2.523690
C  -2.865080 -1.456990 1.320360
C  -3.892850 0.030160 -0.422420
C  -2.021140 -2.259780 2.095350
H  -0.227400 -3.217120 2.688160
H  -3.856480 -1.357980 1.758340
H  -2.493220 -2.674410 2.991780
H  1.683810 -1.666240 -1.361680
C  -5.096270 0.021240 0.529640
H  -5.892280 0.641310 0.091820
H  -5.515430 -0.985870 0.675340
H  -4.854020 0.449380 1.513990
C  -3.495180 1.509940 -0.580140
H  -2.620510 1.669820 -1.217980
H  -4.343690 2.075240 -0.995860
H  -3.244150 1.937390 0.401900
C  -4.396920 -0.584600 -1.741800
H  -5.243300 0.006620 -2.124390
H  -3.637310 -0.634160 -2.529090
H  -4.754950 -1.611050 -1.568550
