18

C  -0.082890 -1.032240 1.156610
C  -1.377400 -0.548370 1.397320
C  0.133060 -1.631350 -0.114250
C  -2.415830 -0.622380 0.465640
O  -1.798510 0.062720 2.520300
C  -0.940510 -1.727920 -1.057760
H  1.039790 -2.211080 -0.295870
C  -2.193440 -1.227550 -0.792930
C  -3.550860 0.003200 1.089210
C  -3.098360 0.385300 2.319250
Cl  -0.608470 -2.492650 -2.572040
H  -2.985260 -1.298210 -1.539850
C  -4.906890 0.194360 0.506420
H  -3.592350 0.889970 3.146600
H  0.686280 -1.055100 1.936280
H  -4.859220 0.800780 -0.411990
H  -5.577920 0.702780 1.212200
H  -5.366390 -0.770310 0.238840
