18

C  -0.063530 -1.620440 -0.430840
C  1.229100 -1.388920 -0.983430
C  -0.184790 -1.436990 0.971770
C  2.277170 -0.933570 -0.194060
C  1.828100 -1.475400 -2.275820
C  0.910950 -1.001500 1.755620
H  -1.112720 -1.712120 1.480440
C  2.152010 -0.713630 1.208410
O  3.370080 -0.768230 -0.954990
H  1.382320 -1.787890 -3.219720
N  3.078190 -1.110330 -2.248060
H  0.784560 -0.855130 2.829020
O  3.115190 -0.283570 2.016790
H  -0.833800 -2.147710 -0.996160
C  4.321560 0.236430 1.492380
H  4.908050 -0.539440 0.979330
H  4.123940 1.062650 0.792700
H  4.885730 0.612860 2.353910
