18

C  0.583270 -1.522940 0.373440
C  -0.685660 -1.285710 1.030770
C  0.335440 -1.277430 -0.987760
C  -1.575810 -0.922140 0.011270
C  -1.122730 -1.319870 2.357980
H  0.897050 -1.570090 -1.873890
O  -0.968950 -0.947010 -1.199220
C  -2.899560 -0.569210 0.257360
C  -2.446440 -0.989000 2.619000
H  -0.436940 -1.593140 3.162040
C  -3.318330 -0.617230 1.584590
C  -3.814380 -0.152680 -0.859650
H  -2.819490 -1.009320 3.644590
H  -4.351990 -0.353570 1.813580
H  1.473670 -1.992980 0.800830
F  -5.038840 0.127420 -0.408330
F  -3.932800 -1.116550 -1.775990
F  -3.356440 0.933980 -1.484280
