26

C  -0.504590 -1.354300 1.121810
C  0.100830 -1.564770 -0.147800
C  0.316710 -0.779680 2.110510
C  1.446380 -1.203800 -0.363590
C  -0.263610 -2.188560 -1.393780
C  1.631940 -0.404440 1.841730
H  -0.097280 -0.622480 3.107930
C  2.257800 -0.595410 0.596630
O  1.788580 -1.552110 -1.620180
H  -1.225140 -2.609020 -1.683660
N  0.722800 -2.165400 -2.234200
H  2.200900 0.066880 2.642490
C  3.679700 -0.150800 0.286030
H  -1.477020 -1.767890 1.388820
C  4.338320 0.515920 1.492860
H  5.359560 0.825140 1.225240
H  3.791190 1.416270 1.811360
H  4.415240 -0.168580 2.351680
C  4.517130 -1.371770 -0.125380
H  4.099580 -1.870670 -1.010500
H  5.544100 -1.055390 -0.365550
H  4.570080 -2.105720 0.693430
C  3.623360 0.864640 -0.867920
H  4.636300 1.235550 -1.089100
H  3.218860 0.411370 -1.783530
H  2.984100 1.717860 -0.597070
