18

C  -0.056370 -0.537530 -1.423800
C  -1.092710 -1.443920 -1.085150
C  -0.281180 0.838100 -1.183810
C  -2.307480 -1.010830 -0.523770
S  -1.055430 -3.157090 -1.275070
C  -1.526880 1.273890 -0.625860
H  0.402080 1.576670 -1.608820
C  -2.508880 0.375610 -0.297550
C  -3.190360 -2.102980 -0.261010
C  -2.644110 -3.301710 -0.618070
C  -1.703350 2.743800 -0.375730
H  -3.445960 0.725380 0.138460
H  -4.184090 -1.994860 0.174330
H  -3.098020 -4.288520 -0.530550
H  0.822850 -0.881830 -1.976010
F  -2.949930 3.044740 -0.009480
F  -1.415720 3.459820 -1.467620
F  -0.885650 3.170310 0.594660
