18

C  0.077980 -1.344390 0.544710
C  -1.284520 -1.140890 0.994340
C  -0.003030 -1.290680 -0.864550
C  -2.053080 -0.972220 -0.163260
C  -1.895550 -1.057500 2.249400
Cl  1.026150 -1.966680 -2.041840
O  -1.276980 -1.089950 -1.283730
C  -3.416190 -0.694120 -0.172430
C  -3.262260 -0.811770 2.278700
H  -1.313640 -1.176770 3.164750
C  -3.998690 -0.632400 1.095800
C  -4.161610 -0.465190 -1.447690
H  -3.779050 -0.746810 3.238500
H  -5.070910 -0.430190 1.163950
H  0.918290 -1.709620 1.139560
H  -4.029640 -1.306230 -2.145450
H  -3.784730 0.436330 -1.956650
H  -5.235510 -0.333490 -1.260400
