19

C  -0.235410 -0.842640 1.145960
C  0.291850 -1.541650 0.024030
N  0.839830 -0.115020 1.681750
C  1.632360 -1.180490 -0.138500
H  -0.251370 -2.291960 -0.548070
C  1.962140 -0.277590 0.893100
C  0.818770 0.687930 2.777820
C  2.506950 -1.558790 -1.276380
C  3.133350 0.430450 1.238930
C  1.947640 1.369070 3.135330
H  -0.132000 0.743730 3.309880
C  3.121080 1.238380 2.349220
H  4.021700 0.311870 0.619600
H  1.929760 2.009810 4.016880
H  4.021230 1.788380 2.630870
H  -1.088840 -1.098190 1.785750
F  2.099780 -2.696520 -1.841610
F  3.780780 -1.724950 -0.885720
F  2.527070 -0.626570 -2.240180
