20

C  -0.039490 -1.008430 -0.984040
C  0.595020 -0.367460 -2.110020
N  0.997210 -1.111930 -0.005140
C  1.871750 0.006200 -1.774510
H  0.090910 -0.191870 -3.059240
C  2.117820 -0.468220 -0.454140
C  0.896030 -1.687960 1.217370
H  2.575520 0.590940 -2.361050
C  3.234300 -0.381900 0.406820
C  1.975700 -1.624830 2.062500
H  -0.084050 -2.125170 1.436740
C  3.153860 -0.963530 1.656840
O  4.340870 0.281400 0.000150
H  1.904470 -2.079880 3.050530
H  4.016210 -0.889570 2.322500
H  -0.681350 -1.888120 -1.068350
C  5.216790 -0.452930 -0.829180
H  5.625280 -1.331080 -0.299510
H  4.715730 -0.798130 -1.750090
H  6.040960 0.219040 -1.100250
