22
Properties=species:S:1:pos:R:3 RH_Sub19.log=T Energy:=T -182583.9090941=T pbc="F F F"
N       -2.70846000      -0.06976000       0.07584000
H       -2.85414000       0.55417000       0.86746000
H       -3.44088000      -0.77344000       0.11246000
C       -1.40426000      -0.68535000       0.15804000
H       -1.21508000      -1.23896000       1.10597000
H       -1.33884000      -1.45040000      -0.63673000
C       -0.26884000       0.29520000      -0.02839000
C        1.09794000      -0.21930000       0.37286000
C       -0.49572000       1.51858000      -0.51792000
H        0.30600000       2.24530000      -0.66041000
H       -1.51008000       1.80854000      -0.80051000
H        1.00159000      -0.56590000       1.42072000
C        1.49830000      -1.43729000      -0.46626000
H        2.48104000      -1.82114000      -0.15154000
H        0.77818000      -2.26372000      -0.37499000
H        1.56534000      -1.16428000      -1.53173000
C        2.19442000       0.83525000       0.33780000
H        1.94150000       1.70567000       0.96125000
H        3.14191000       0.41608000       0.70913000
H        2.37161000       1.19389000      -0.68878000
Xe      -0.38228000       0.90689000      -0.27315500
Xe      -3.78914056       2.46002113      -1.43543224
