12
Properties=species:S:1:pos:R:3 RH_Sub25_S.log=T Energy:=T -612035.6125993=T pbc="F F F"
S       -0.49328000       1.52537000      -0.08938000
H        0.47445000       2.25406000       0.50405000
C        0.11856000      -0.06406000       0.51380000
Cl       1.73014000      -0.49998000      -0.19675000
H        0.31487000       0.01319000       1.59246000
C       -0.83473000      -1.18522000       0.24819000
H       -0.43353000      -2.16956000       0.51236000
C       -2.06530000      -1.07365000      -0.24832000
H       -2.68858000      -1.95909000      -0.39308000
H       -2.49825000      -0.10731000      -0.52300000
Xe      -1.45001500      -1.12943500      -0.00006500
Xe      -4.08854924      -3.94790524      -0.71823009
