24
Properties=species:S:1:pos:R:3 RH_Sub37.log=T Energy:=T -217291.6790266=T pbc="F F F"
N       -1.28294000       1.91244000      -0.10865000
H       -1.07529000       2.10134000       0.87000000
H       -1.93976000       2.63390000      -0.39454000
C       -1.88465000       0.59974000      -0.25249000
H       -2.64686000       0.35549000       0.51724000
H       -2.41181000       0.57380000      -1.22217000
C        2.28611000      -0.28189000       0.06829000
H        2.68710000      -1.26807000       0.34146000
C        2.74118000       0.31226000      -1.03612000
H        3.50614000      -0.15267000      -1.66401000
C       -0.86968000      -0.54363000      -0.25105000
H       -0.17713000      -0.36795000      -1.10099000
H       -2.16314000      -1.78787000      -1.23042000
C        1.23951000       0.27362000       0.98260000
H        0.98640000       1.29533000       0.66412000
H        1.65718000       0.33722000       2.00307000
C       -0.02629000      -0.59021000       1.02699000
H       -0.65544000      -0.31183000       1.89078000
H        0.26831000      -1.63834000       1.21315000
H        2.35973000       1.28943000      -1.35025000
H       -0.98045000      -2.57263000      -0.43644000
N       -1.62164000      -1.78479000      -0.36712000
Xe       2.51364500       0.01518500      -0.48391500
Xe       1.50539434       3.47800302      -2.05380869
