24
Properties=species:S:1:pos:R:3 RH_Sub8.log=T Energy:=T -310840.3256002=T pbc="F F F"
N        1.86953000       1.61341000      -0.68785000
H        2.12958000       1.20340000      -1.58168000
H        2.06703000       2.60688000      -0.77445000
C        2.64689000       1.03248000       0.40188000
H        3.67382000       0.74579000       0.09308000
H        2.77576000       1.80982000       1.17188000
C       -0.57927000      -1.11500000      -0.42362000
H       -1.18663000      -1.94277000      -0.04051000
C       -1.12516000       0.10055000      -0.39720000
N       -2.47574000       0.29517000       0.10567000
C        1.98170000      -0.16256000       1.07772000
H        0.99432000       0.15193000       1.45469000
H        2.58415000      -0.41033000       1.96802000
C        0.80998000      -1.38484000      -0.89752000
H        1.09903000      -0.62349000      -1.63380000
H        0.82463000      -2.35581000      -1.41819000
C        1.83635000      -1.43488000       0.24775000
H        2.81559000      -1.71025000      -0.18213000
H        1.56240000      -2.26364000       0.92260000
H       -0.62676000       1.02556000      -0.69207000
O       -2.87960000       1.43985000       0.10143000
O       -3.10695000      -0.66630000       0.49029000
Xe      -0.85221500      -0.50722500      -0.41041000
Xe      -2.54567635      -3.79501216       0.81674805
