26
Properties=species:S:1:pos:R:3 aa126_opt_TZ.log=T Energy:=T -348486.2370784=T pbc="F F F"
C       -0.36236000      -0.23697000      -0.09531000
C       -0.84618000      -1.50830000      -0.38108000
C       -2.20416000      -1.76341000      -0.32179000
C       -3.09282000      -0.75159000      -0.00482000
C       -2.61451000       0.52165000       0.24775000
H       -0.16199000      -2.29891000      -0.63778000
H       -3.30208000       1.32169000       0.48309000
H       -2.56612000      -2.75796000      -0.53386000
H       -4.15325000      -0.94942000       0.03973000
O        1.72727000      -1.96964000       0.55989000
C        1.98881000      -0.85086000       0.17450000
C        3.41795000      -0.35836000       0.08359000
N        1.02308000       0.06178000      -0.17361000
C        1.33084000       1.37225000      -0.56650000
C        0.52120000       2.38915000      -0.30258000
C       -0.73281000       2.17551000       0.48470000
C       -1.25560000       0.79075000       0.21372000
H        3.55328000       0.55882000       0.65197000
H        4.06240000      -1.13362000       0.48960000
H        3.69698000      -0.18136000      -0.95348000
H        2.24138000       1.49945000      -1.12990000
H        0.75090000       3.38138000      -0.65441000
H       -0.51704000       2.28127000       1.55613000
H       -1.48629000       2.92435000       0.23195000
Xe       0.92602000       1.88070000      -0.43454000
Xe       4.31942805       1.78974775      -2.41569993
