26
Properties=species:S:1:pos:R:3 aa195_plan_opt_TZ.log=T Energy:=T -397665.4232328=T pbc="F F F"
C        1.06206000       1.37861000      -0.00243000
C        0.67700000       0.03918000       0.00008000
N       -0.64903000      -0.38005000       0.00076000
C       -1.79127000       0.39544000      -0.00011000
N       -2.95511000      -0.32277000      -0.00424000
C       -4.20670000       0.40033000       0.00599000
C       -3.03214000      -1.76552000      -0.00545000
C        2.40293000       1.71405000      -0.00304000
C        3.38810000       0.74059000      -0.00125000
C        2.98847000      -0.58208000       0.00118000
C        1.65956000      -0.95148000       0.00189000
F        3.92589000      -1.55704000       0.00291000
O       -1.78443000       1.60976000       0.00170000
H       -3.97745000       1.46371000       0.00559000
H       -4.78378000       0.15662000       0.90109000
H       -4.79647000       0.15866000      -0.88122000
H       -4.08171000      -2.05066000      -0.01875000
H       -2.55890000      -2.19622000      -0.89379000
H       -2.58036000      -2.19781000       0.89353000
H       -0.76341000      -1.38106000       0.00360000
H        0.30359000       2.14242000      -0.00371000
H        2.68612000       2.75533000      -0.00492000
H        4.43682000       0.98899000      -0.00169000
H        1.39877000      -1.99967000       0.00382000
Xe       2.32401500      -0.76678000       0.00153500
Xe       0.80484688      -4.38681778       0.00821538
