17
Properties=species:S:1:pos:R:3 RH_Sub24.log=T Energy:=T -193520.9984771=T pbc="F F F"
C        0.81790000      -1.17607000      -0.00018000
C       -0.22821000      -0.31376000      -0.00003000
C        1.61913000       1.03917000      -0.00014000
C        0.27073000       1.06917000      -0.00003000
O       -1.52089000      -0.68510000       0.00009000
H       -0.34893000       1.96641000       0.00002000
H        0.74969000      -2.26247000      -0.00015000
C        2.08145000      -0.38219000      -0.00025000
H        2.71738000      -0.59362000       0.88062000
H        2.71711000      -0.59345000      -0.88135000
H        2.28483000       1.90305000      -0.00020000
C       -2.49669000       0.31853000       0.00043000
H       -2.43349000       0.95882000       0.89832000
H       -2.43382000       0.95912000      -0.89727000
H       -3.47160000      -0.18613000       0.00052000
Xe       0.29484500      -0.74491500      -0.00010500
Xe       0.59580912      -4.71337442      -0.00008232
