15
Properties=species:S:1:pos:R:3 RH_Sub10.log=T Energy:=T -133282.4527328=T pbc="F F F"
N       -1.56965000      -0.96024000      -0.01496000
H       -1.43352000      -1.24378000      -0.98384000
H       -2.52191000      -1.21693000       0.23386000
C       -1.36344000       0.46457000       0.12979000
H       -2.08420000       1.09929000      -0.43071000
H       -1.49842000       0.72433000       1.19516000
C        0.04539000       0.86464000      -0.29457000
H        0.15661000       1.95058000      -0.12024000
H        0.16722000       0.71767000      -1.38268000
C        1.12560000       0.12993000       0.43494000
C        2.17897000      -0.45677000      -0.13303000
H        2.94315000      -0.96264000       0.46269000
H        2.31523000      -0.45664000      -1.21983000
H        1.02419000       0.09561000       1.52758000
He       0.81706608      -0.31399737       0.94392557
