26
Properties=species:S:1:pos:R:3 pbc="F F F"
N       -3.02126300      -0.09360900       0.91093200
H       -3.75002700      -0.51528200       0.33837100
H       -3.47052200       0.23949600       1.75971200
C       -2.38038800       0.98899200       0.19888600
H       -3.08264500       1.74666100      -0.21380800
H       -1.73406600       1.52801600       0.91375600
C       -1.51878400       0.45565100      -0.95060400
H       -1.19507300       1.30180200      -1.58190200
H       -2.15695700      -0.16604300      -1.60086200
C       -0.32808400      -0.34874800      -0.50939200
C       -0.40372900      -1.73582100      -0.41379400
C        0.88188700       0.29705000      -0.14823900
C        0.67728800      -2.51034700       0.00628200
C        1.97049100      -0.48574700       0.27421000
N        0.98479300       1.67036300      -0.23999600
C        1.86595200      -1.87242900       0.34524700
H        0.58848900      -3.59678400       0.06808400
H        2.90924800      -0.00606700       0.55366400
H        2.72896700      -2.45548000       0.67715400
H       -1.34768100      -2.21965700      -0.67756600
H        0.11470300       2.17845100      -0.26902800
C        2.12307700       2.39528200       0.23946700
H        1.95965300       3.47004700       0.08135800
H        3.03622500       2.11951600      -0.31460700
H        2.32871200       2.23475000       1.31675400
He       0.78915773      -3.09326119      -0.43610780
