19
Properties=species:S:1:pos:R:3 RH_Sub6.log=T Energy:=T -490791.5058450=T pbc="F F F"
S       -2.57152000      -0.87103000      -0.21304000
C       -1.34679000       0.41179000       0.13100000
H       -3.59703000      -0.02254000       0.00669000
O       -1.69318000       1.54211000       0.35742000
C        0.06757000      -0.04785000       0.07422000
C        0.36006000      -1.41668000       0.15876000
C        1.11776000       0.89270000      -0.05596000
C        1.66811000      -1.87984000       0.11359000
C        2.42611000       0.39798000      -0.11033000
C        0.89751000       2.37308000      -0.14402000
C        2.70687000      -0.96238000      -0.02558000
H        1.87438000      -2.94937000       0.18875000
H        3.24770000       1.11030000      -0.22145000
H        3.74326000      -1.30616000      -0.06708000
H       -0.45679000      -2.13209000       0.28120000
H        0.47964000       2.76867000       0.79273000
H        0.16935000       2.63262000      -0.92565000
H        1.84598000       2.88546000      -0.35606000
He      -0.08201266      -1.82097255      -0.27670646
