13
Properties=species:S:1:pos:R:3 RH_Sub15.log=T Energy:=T -433944.6866465=T pbc="F F F"
C       -0.51316000       0.00003000      -0.00003000
C        0.17303000      -1.21376000       0.00011000
C        0.17306000       1.21377000      -0.00002000
C        1.56630000      -1.20569000      -0.00010000
C        1.56635000       1.20567000      -0.00001000
C        2.26647000      -0.00002000       0.00012000
H       -0.38651000       2.15054000      -0.00010000
H        2.10760000       2.15476000      -0.00011000
H        3.35856000      -0.00005000       0.00005000
Cl      -2.24664000       0.00000000       0.00000000
H       -0.38663000      -2.15047000      -0.00001000
H        2.10755000      -2.15482000      -0.00034000
He       1.83697827       1.68016045      -0.50006000
