15
Properties=species:S:1:pos:R:3 RH_Sub15.log=T Energy:=T -421606.4377111=T pbc="F F F"
N       -2.52973000       0.35738000       0.43048000
H       -2.56950000       0.00912000       1.38684000
H       -3.49085000       0.50404000       0.13192000
C       -1.86480000      -0.59713000      -0.43349000
H       -2.38311000      -1.57662000      -0.50738000
H       -1.84510000      -0.18317000      -1.45636000
C        0.53060000       0.26033000      -0.06000000
Cl       2.19510000      -0.25894000       0.10401000
C        0.25033000       1.55350000      -0.20919000
H        1.04267000       2.30229000      -0.25223000
C       -0.43429000      -0.88661000      -0.00188000
H       -0.03390000      -1.69291000      -0.63810000
H       -0.42246000      -1.30259000       1.02358000
H       -0.79747000       1.85952000      -0.24235000
C       -0.27357000       1.70651000      -0.22577000
