32
Properties=species:S:1:pos:R:3 aa215_plan_opt_TZ.log=T Energy:=T -491511.1059110=T pbc="F F F"
C       -0.27520000      -1.65319000      -0.05490000
C        0.22473000      -0.36050000      -0.03624000
N        1.59611000      -0.05766000      -0.01878000
C        2.64575000      -0.93072000       0.01589000
O        2.55596000      -2.12839000       0.02823000
O        3.87921000      -0.37677000       0.03886000
C        4.12287000       1.02029000       0.01617000
C        5.63195000       1.21706000       0.04447000
C       -1.64251000      -1.83994000      -0.05971000
C       -2.54558000      -0.78133000      -0.05394000
C       -2.03716000       0.53095000      -0.05504000
C       -0.66145000       0.71387000      -0.03852000
O       -3.85686000      -1.15890000      -0.07545000
C       -4.88402000      -0.24463000       0.23535000
C       -2.43547000       2.89150000      -0.02121000
O       -2.92651000       1.57766000      -0.08268000
H       -4.70806000       0.24710000       1.19523000
H       -5.78989000      -0.84719000       0.29932000
H       -5.00523000       0.51283000      -0.54197000
H       -1.81767000       3.13582000      -0.89195000
H       -1.86374000       3.06870000       0.89601000
H       -3.31794000       3.53022000      -0.02099000
H        0.39627000      -2.49328000      -0.05804000
H       -2.05394000      -2.83625000      -0.06807000
H       -0.25787000       1.71558000      -0.03622000
H        1.79588000       0.93101000      -0.01756000
H        3.67056000       1.50226000       0.89492000
H        3.70793000       1.46584000      -0.89920000
H        5.86707000       2.27751000       0.02279000
H        6.08231000       0.72994000      -0.81516000
H        6.04379000       0.77456000       0.94654000
C       -1.84822500      -2.33809500      -0.06389000
