14
Properties=species:S:1:pos:R:3 RH_Sub27.log=T Energy:=T -156423.7779270=T pbc="F F F"
C        0.08400000      -1.14066000       0.00678000
C       -0.73442000      -0.05498000      -0.00610000
C        1.39430000       0.81372000       0.00618000
C        0.09277000       1.16012000      -0.00709000
H       -2.59542000      -0.85488000       0.15450000
H       -0.31001000       2.17551000      -0.02435000
H       -0.22618000      -2.18570000       0.00895000
C        1.50588000      -0.67796000       0.00575000
H        2.07679000      -1.03807000       0.88325000
H        2.07306000      -1.02755000      -0.87894000
H        2.24640000       1.49465000       0.00793000
H       -2.53491000       0.80971000       0.36472000
N       -2.11213000       0.00356000      -0.07846000
Ne      -0.08040479      -1.65833890       1.00780990
