11
Properties=species:S:1:pos:R:3 RH_Sub3_S.log=T Energy:=T -510466.2520742=T pbc="F F F"
S        2.79272000      -0.16802000       0.00005000
H        3.32517000       1.07019000      -0.00025000
C        1.12256000       0.33882000      -0.00008000
H        0.93486000       1.41604000      -0.00014000
C        0.08916000      -0.50922000      -0.00012000
C       -1.32264000      -0.03461000      -0.00002000
H        0.21150000      -1.59575000      -0.00013000
F       -1.98631000      -0.48051000       1.07415000
F       -1.98708000      -0.48251000      -1.07287000
F       -1.41433000       1.29946000      -0.00116000
Xe       1.02871000       0.87743000      -0.00011000
