16
Properties=species:S:1:pos:R:3 RH_Sub25.log=T Energy:=T -458597.2732337=T pbc="F F F"
C       -0.36152000      -0.38817000       0.00007000
C        0.52137000      -1.46567000       0.00003000
C        0.08465000       0.94193000      -0.00004000
C        1.89325000      -1.22836000      -0.00011000
C        1.46938000       1.14501000      -0.00022000
C        2.36831000       0.08109000      -0.00026000
C       -0.87736000       2.08870000       0.00002000
H        1.84495000       2.17180000      -0.00038000
H        3.44283000       0.27685000      -0.00042000
Cl      -2.06889000      -0.71169000       0.00021000
H        0.12323000      -2.48169000       0.00012000
H        2.58824000      -2.07104000      -0.00011000
H       -1.53670000       2.05243000      -0.88140000
H       -0.34508000       3.04929000      -0.00128000
H       -1.53471000       2.05389000       0.88300000
Xe       1.65716500       1.65840500      -0.00030000
