15
Properties=species:S:1:pos:R:3 RH_Sub4_S.log=T Energy:=T -395531.4209408=T pbc="F F F"
S       -2.08124000      -0.80365000      -0.08012000
H       -3.26833000      -0.65987000       0.54499000
C       -1.56680000       0.94600000       0.06263000
H       -2.08814000       1.53476000      -0.70844000
H       -1.90621000       1.32831000       1.04068000
C       -0.08916000       1.11865000      -0.09056000
H        0.26411000       2.11786000      -0.36580000
C        0.82871000       0.16829000       0.11336000
O        2.14907000       0.41457000       0.02116000
H        0.54357000      -0.85704000       0.38677000
C        2.97841000      -0.71413000      -0.02897000
H        2.81985000      -1.37711000       0.84106000
H        2.81874000      -1.29995000      -0.95191000
H        4.01668000      -0.35804000      -0.01346000
Xe       0.24878871       2.07452434      -0.35386286
