23
Properties=species:S:1:pos:R:3 RH_Sub39.log=T Energy:=T -422312.4282275=T pbc="F F F"
S        1.80637000      -1.03605000      -0.54505000
H        2.59787000      -1.92272000       0.09456000
C        0.95048000      -0.43486000       0.95924000
H        0.64218000      -1.31013000       1.54651000
H        1.65378000       0.15102000       1.56976000
C        0.05968000       1.81384000       0.17843000
H       -0.78936000       2.50581000       0.15068000
C        1.25751000       2.28219000      -0.17635000
H        1.37786000       3.32316000      -0.48789000
C       -0.27610000       0.42131000       0.64301000
H       -0.79444000       0.54338000       1.61642000
C       -1.29474000      -0.27990000      -0.29058000
H        2.15203000       1.65277000      -0.19181000
H       -0.81294000      -0.37179000      -1.28088000
C       -1.62901000      -1.68617000       0.19509000
H       -2.40459000      -2.13877000      -0.44141000
H       -0.75167000      -2.34806000       0.15954000
H       -2.01672000      -1.67005000       1.22813000
C       -2.57099000       0.53856000      -0.46225000
H       -2.38752000       1.51046000      -0.94156000
H       -3.29262000      -0.00428000      -1.09137000
H       -3.05674000       0.72619000       0.51059000
Xe      -0.75229747       2.47560394       0.15189135
