26
Properties=species:S:1:pos:R:3 aa224_plan_opt_TZ.log=T Energy:=T -637405.4828654=T pbc="F F F"
C       -1.77400000      -1.67439000       0.21873000
C       -1.47368000      -0.32450000       0.01198000
C       -0.08995000       0.10572000      -0.07730000
N        0.86131000      -0.72776000       0.02020000
C       -2.53992000       0.57386000      -0.09707000
C       -3.85197000       0.14033000      -0.00168000
C       -4.12073000      -1.20135000       0.20281000
C       -3.07849000      -2.11044000       0.31261000
Cl      -2.25907000       2.26255000      -0.35113000
H       -4.65617000       0.85464000      -0.08768000
H       -5.14496000      -1.53397000       0.27635000
H       -3.28938000      -3.15694000       0.47203000
H       -0.94435000      -2.35881000       0.30124000
H        0.07873000       1.17358000      -0.25415000
C        2.18693000      -0.35001000       0.01567000
C        3.10157000      -1.15049000      -0.67255000
C        4.44470000      -0.83460000      -0.66210000
C        4.90169000       0.26089000       0.05485000
C        4.00388000       1.04339000       0.76192000
C        2.65462000       0.74917000       0.74058000
H        1.95416000       1.34526000       1.30841000
H        4.35689000       1.89113000       1.33142000
H        5.95478000       0.49912000       0.06830000
H        5.14386000      -1.44948000      -1.20997000
H        2.73345000      -1.99897000      -1.22887000
Xe       4.34373089       1.85952891       1.31019082
