16
Properties=species:S:1:pos:R:3 RH_Sub15_O.log=T Energy:=T -552211.0656411=T pbc="F F F"
O        3.28297000       0.23182000      -0.00020000
C        2.22762000      -0.59296000       0.00002000
H        4.06985000      -0.33371000      -0.00023000
O        2.34074000      -1.79224000       0.00019000
C        0.92717000       0.12949000      -0.00000000
C        0.85089000       1.52563000       0.00003000
C       -0.23651000      -0.64436000       0.00004000
C       -0.39633000       2.14424000       0.00007000
C       -1.47344000      -0.00991000       0.00005000
H       -0.15543000      -1.73221000       0.00004000
C       -1.56321000       1.38331000       0.00007000
H       -0.46611000       3.23420000       0.00006000
Cl      -2.92225000      -0.95713000      -0.00008000
H       -2.54545000       1.85886000       0.00013000
H        1.76845000       2.11473000      -0.00007000
Xe      -0.15880691      -1.68690199       0.00004000
