18
Properties=species:S:1:pos:R:3 RH_Sub27_O.log=T Energy:=T -298612.0964612=T pbc="F F F"
O        2.75748000      -1.09703000       0.00324000
C        2.16118000       0.10907000       0.00226000
H        3.70922000      -0.91823000       0.00487000
O        2.80073000       1.13422000       0.00450000
C        0.68949000       0.02997000      -0.00145000
C       -0.00455000      -1.18731000      -0.00243000
C       -0.04453000       1.22336000      -0.00253000
C       -1.38929000      -1.21294000      -0.00424000
C       -1.42772000       1.20794000      -0.00447000
H        0.50464000       2.16738000      -0.00027000
C       -2.13075000      -0.01434000      -0.00580000
H       -1.91783000      -2.16991000      -0.00718000
H       -1.98610000       2.14782000      -0.00728000
H       -3.99903000       0.81071000       0.18348000
H        0.55790000      -2.12242000      -0.00008000
H       -3.97288000      -0.89673000       0.18536000
N       -3.49780000      -0.03581000      -0.04411000
Xe       0.53438841      -2.08333044      -0.00017823
