26

Ir  -0.320190 -0.280180 -0.250130
C  1.654970 -0.428220 -0.959110
S  3.024350 -0.010570 0.000790
C  2.118700 -0.842890 -2.204380
C  4.193960 -0.381850 -1.235290
C  3.547570 -0.815040 -2.357490
C  1.228620 -1.273780 -3.228640
C  5.660700 -0.196030 -1.003260
H  4.062830 -1.106590 -3.274450
N  0.493680 -1.640340 -4.051810
H  6.165480 -0.510090 -1.935560
C  6.190570 -1.080210 0.133620
H  5.955260 -2.134640 -0.082470
H  5.644200 -0.825170 1.060190
C  7.686630 -0.889960 0.354230
H  8.028830 -1.514870 1.195350
H  8.232450 -1.247280 -0.538070
C  8.035010 0.574030 0.600290
H  9.123770 0.695990 0.721100
H  7.577610 0.899180 1.552620
C  7.520470 1.461150 -0.528120
H  8.059130 1.210800 -1.460310
H  7.742950 2.520100 -0.318630
C  6.024380 1.273740 -0.749420
H  5.470660 1.623790 0.141000
H  5.669840 1.888840 -1.591670
