22

Ir  0.023360 -0.133080 0.241730
C  -2.018450 0.376550 0.445850
S  -3.257350 -0.839720 0.381740
C  -2.628980 1.595400 0.626080
C  -4.575820 0.252860 0.573550
C  -4.061540 1.536320 0.696900
H  -2.069340 2.528220 0.710070
C  -6.021720 -0.205490 0.591760
C  -4.862120 2.702020 0.864230
N  -5.505760 3.660520 0.995600
C  -6.780820 0.463280 -0.564290
H  -7.831080 0.129950 -0.571100
H  -6.774530 1.558520 -0.471530
H  -6.327890 0.197430 -1.531640
C  -6.107630 -1.724910 0.424080
H  -5.583460 -2.249720 1.237850
H  -7.160960 -2.043950 0.437770
H  -5.666860 -2.049350 -0.531490
C  -6.663520 0.181950 1.932360
H  -7.712040 -0.155560 1.962110
H  -6.125840 -0.286750 2.770470
H  -6.654410 1.270460 2.084770
