18

Ir  0.224540 -0.172230 -0.195240
C  2.312710 -0.025870 -0.636700
C  3.294200 0.442000 0.273200
C  2.825550 -0.418770 -1.892830
C  4.654840 0.465980 -0.025880
O  2.837610 0.885760 1.468580
C  1.952590 -0.873650 -2.938410
C  4.190500 -0.396000 -2.229960
C  5.110300 0.039320 -1.284280
H  5.387560 0.821030 0.697600
N  1.316740 -1.255770 -3.830800
H  4.519030 -0.716720 -3.219020
C  6.509730 0.061730 -1.580360
N  7.646960 0.079640 -1.808990
C  3.743350 1.307140 2.442730
H  4.449290 0.505220 2.724230
H  4.319290 2.191970 2.119370
H  3.148940 1.580240 3.324480
