28

Ir  -0.879110 -0.387740 -0.074020
C  1.230230 -0.460640 -0.308400
C  1.865450 -1.578070 -0.866620
C  2.066650 0.570580 0.143100
C  3.247590 -1.642840 -0.948290
H  1.301980 -2.431600 -1.252370
C  3.454660 0.471310 0.050210
H  1.631800 1.479220 0.562620
F  3.784010 -2.751430 -1.493320
C  4.114540 -0.638080 -0.497840
I  4.548950 2.137050 0.797750
C  5.610770 -0.783540 -0.615830
H  6.049690 0.134440 -0.191510
C  6.087520 -0.862010 -2.072270
H  5.717440 0.017420 -2.623460
H  5.643780 -1.748540 -2.553680
C  7.607940 -0.942160 -2.151140
H  7.928310 -1.030660 -3.202170
H  8.042010 0.001480 -1.773000
C  8.151110 -2.105940 -1.328890
H  9.252290 -2.129560 -1.375540
H  7.799550 -3.055990 -1.770950
C  7.681450 -2.026130 0.119800
H  8.118340 -1.127520 0.592530
H  8.054600 -2.890230 0.693900
C  6.161410 -1.952490 0.212000
H  5.721830 -2.895300 -0.152100
H  5.843010 -1.836550 1.260820
