20

Ir  -0.242520 -0.211660 0.054640
C  -1.921340 -1.393640 -0.490140
C  -1.921600 -2.798550 -0.566630
C  -3.159360 -0.834340 -0.777250
C  -3.066630 -3.545840 -0.884150
H  -0.988160 -3.341210 -0.392600
O  -3.432080 0.520220 -0.790660
C  -4.339120 -1.534960 -1.100130
C  -4.288170 -2.933900 -1.151290
H  -2.991750 -4.636390 -0.928170
C  -4.734130 0.665070 -1.113130
C  -5.358470 -0.538770 -1.302190
H  -5.174880 -3.522210 -1.398830
N  -5.174670 1.953710 -1.249310
H  -6.402280 -0.690450 -1.566510
H  -6.177260 2.022650 -1.358380
C  -4.539430 3.035670 -0.544970
H  -4.876730 3.993910 -0.964800
H  -3.452560 2.970630 -0.683890
H  -4.741660 3.040870 0.544830
