24

Ir  0.063790 0.347600 0.274300
C  2.121410 0.847050 0.423300
C  2.823820 1.992350 0.139860
C  3.146760 -0.097050 0.814630
O  4.170700 1.799630 0.318680
C  2.470000 3.367760 -0.305220
C  4.357230 0.524330 0.728330
H  2.976320 -1.130090 1.109550
H  3.334030 4.030370 -0.155740
H  1.631050 3.778290 0.273820
H  2.197240 3.418030 -1.373450
C  5.775340 0.090640 0.962020
C  6.566990 0.236380 -0.345680
H  7.620490 -0.052730 -0.199380
H  6.138430 -0.402690 -1.133260
H  6.538890 1.276540 -0.702100
C  6.409800 0.973240 2.045710
H  5.869490 0.868260 2.999030
H  7.462890 0.693170 2.211270
H  6.375110 2.032660 1.751940
C  5.787180 -1.369850 1.410440
H  6.820560 -1.707530 1.585260
H  5.220240 -1.504050 2.344050
H  5.339810 -2.023940 0.646090
