20

Ir  0.212070 0.321630 0.349300
C  2.231090 0.914240 0.832730
C  2.792070 2.203320 0.659520
C  3.165860 -0.044230 1.292570
C  4.184970 2.421380 0.790660
N  1.951330 3.288890 0.366070
C  4.540680 0.314340 1.401860
C  3.091130 -1.420470 1.712670
N  5.071340 1.492740 1.132630
H  4.594940 3.417980 0.599290
N  5.240580 -0.784280 1.839790
C  4.363050 -1.821050 2.037940
H  2.207670 -2.052200 1.732420
H  6.233290 -0.784450 2.021360
H  4.712640 -2.785790 2.401490
H  1.099520 3.209980 0.906210
C  2.454240 4.628840 0.312840
H  1.614660 5.317770 0.133010
H  3.157610 4.751080 -0.527330
H  2.981840 4.965490 1.231040
