26

Ir  -0.097350 0.296510 0.235390
C  2.056610 0.618290 0.316620
C  2.841870 1.788790 -0.013720
C  2.816820 -0.466530 0.734840
N  4.157950 1.835660 0.018360
C  2.184160 3.088240 -0.414050
C  4.230820 -0.448380 0.780130
H  2.331030 -1.406620 1.009260
C  4.874980 0.751620 0.386710
C  3.109200 4.289460 -0.456780
H  1.355210 3.275260 0.283260
H  1.718160 2.951250 -1.403550
C  5.024610 -1.557890 1.165100
C  6.291540 0.812440 0.388590
C  6.396560 -1.471390 1.152750
H  4.526980 -2.484540 1.466730
C  7.056720 -0.273700 0.761440
H  6.752650 1.754350 0.081200
H  6.999080 -2.335490 1.448310
C  8.556670 -0.218110 0.762540
H  8.963030 -0.418810 1.767440
H  8.922940 0.766530 0.440120
H  8.984870 -0.977040 0.087280
H  3.584900 4.458380 0.520430
H  2.551850 5.197500 -0.737480
H  3.923260 4.135930 -1.177820
