21

Ir  0.032880 -0.126530 0.251150
C  -2.076980 0.280090 0.555130
C  -3.209690 -0.456680 0.203060
C  -2.375720 1.508950 1.220240
Cl  -3.096570 -2.033330 -0.566460
C  -4.515540 0.003490 0.453990
N  -3.576640 2.007020 1.495820
H  -1.540140 2.139870 1.537770
C  -4.593700 1.258590 1.104490
C  -5.869510 -0.445500 0.233710
N  -5.918330 1.557190 1.268260
C  -6.690920 0.540620 0.748240
C  -6.315340 -1.711920 -0.420160
H  -6.255310 2.399900 1.710680
C  -8.174130 0.628160 0.802680
H  -8.635520 -0.254870 0.343870
H  -8.547580 1.517170 0.266840
H  -8.538610 0.693800 1.841850
H  -5.944110 -2.599100 0.115580
H  -5.940510 -1.790280 -1.452260
H  -7.412480 -1.775560 -0.455640
