24

Ir  0.371520 -0.200120 0.042230
C  -1.726100 -0.013930 0.002530
C  -2.532840 -0.674830 0.968280
N  -2.302980 0.715440 -0.958490
C  -3.918040 -0.593650 0.954330
H  -2.046410 -1.266180 1.744260
C  -3.625890 0.795350 -0.955580
C  -4.533170 0.182100 -0.049720
C  -4.720110 -1.322870 1.992570
N  -4.363870 1.510760 -1.855900
C  -5.864370 0.566210 -0.453180
C  -5.697950 1.376200 -1.554660
H  -3.960900 2.059610 -2.601040
C  -7.171280 0.187430 0.172890
H  -6.453960 1.876790 -2.155260
C  -8.389140 0.779890 -0.515790
H  -7.161690 0.489440 1.233060
H  -7.254880 -0.911700 0.193340
H  -8.362160 1.881100 -0.506430
H  -9.315510 0.466880 -0.012250
H  -8.456490 0.455970 -1.566600
F  -5.564630 -2.207300 1.437330
F  -5.466950 -0.486360 2.728060
F  -3.952780 -2.007540 2.845140
