17

Ir  0.004400 0.423540 0.113960
C  2.054840 1.178570 0.077360
C  2.353460 2.467150 -0.384460
C  3.201880 0.466340 0.466960
C  3.628500 2.990740 -0.511030
F  1.353540 3.309940 -0.741920
Br  3.064320 -1.303870 1.215760
C  4.539250 0.934180 0.370320
C  4.726580 2.223970 -0.150030
H  3.748850 4.005230 -0.896610
N  5.611040 0.175180 0.771630
H  5.732030 2.631080 -0.256480
H  5.410130 -0.795780 0.967510
C  6.966310 0.546540 0.513960
H  7.631480 -0.246470 0.881920
H  7.245600 1.476880 1.040400
H  7.183640 0.700170 -0.562440
