22

Ir  0.064790 -0.192530 -0.394630
C  2.103650 -0.074160 -0.952360
C  3.210970 -0.701380 -0.381780
N  2.619680 0.773120 -1.913380
C  4.402570 -0.228060 -1.002710
H  3.185930 -1.425480 0.431120
C  3.991930 0.685820 -1.951110
C  1.865900 1.634630 -2.786870
C  5.809540 -0.621020 -0.645390
H  4.564520 1.272240 -2.667150
H  1.284410 2.366300 -2.206440
H  1.176540 1.056450 -3.422690
H  2.563550 2.174750 -3.441160
H  5.868690 -1.725440 -0.690650
C  6.838490 -0.065350 -1.622070
H  7.854910 -0.401710 -1.363880
H  6.624520 -0.382850 -2.653930
H  6.838940 1.036990 -1.602990
C  6.144670 -0.208560 0.789920
H  5.415400 -0.620990 1.503320
H  7.148970 -0.554760 1.085870
H  6.115450 0.888820 0.888230
