18

Ir  0.147860 -0.232930 -0.372490
C  2.277640 -0.206280 -0.744730
C  3.117700 -1.338480 -0.741250
C  2.911610 1.043490 -0.900050
N  2.618470 -2.641980 -0.683120
C  4.525890 -1.194810 -0.783410
C  4.290680 1.167940 -0.949950
H  2.315520 1.953520 -0.972040
H  1.801090 -2.747010 -1.272170
H  3.331550 -3.327150 -0.907660
C  5.126770 0.055230 -0.875070
O  5.222940 -2.368040 -0.753070
Cl  5.007840 2.756900 -1.085820
H  6.207740 0.180270 -0.908500
C  6.616080 -2.318330 -0.819940
H  6.967900 -1.846290 -1.755320
H  7.049670 -1.766330 0.033470
H  6.975790 -3.355500 -0.788890
