16

Ir  0.322830 -0.054980 -0.167540
C  2.220540 0.054430 -1.231880
C  2.733570 -1.180630 -1.649970
C  3.222480 1.067890 -1.232820
N  4.024330 -1.476350 -1.846100
H  2.051290 -2.028450 -1.787460
N  4.528830 0.783790 -1.350040
N  2.969600 2.409810 -1.066950
C  4.856450 -0.473730 -1.607090
C  6.274390 -0.778710 -1.629780
N  7.406250 -1.024930 -1.624860
H  3.841290 2.927290 -1.121200
C  1.848160 3.052410 -1.696510
H  1.698100 4.052910 -1.266660
H  0.939250 2.468860 -1.516150
H  1.967340 3.153730 -2.792390
