22

Ir  0.221960 0.242420 0.119080
C  -1.894750 0.346260 -0.059520
C  -2.682620 -0.805700 0.113110
C  -2.607640 1.528450 -0.364950
C  -4.071290 -0.795640 0.010060
H  -2.199540 -1.763590 0.305230
C  -1.871380 2.738130 -0.598120
C  -4.020580 1.556070 -0.461430
C  -4.884410 -2.029070 0.174960
C  -4.748690 0.395810 -0.269440
N  -1.278600 3.717380 -0.786010
C  -4.746500 2.841550 -0.770410
O  -6.088500 -2.067660 0.129020
O  -4.130690 -3.119980 0.378570
H  -5.836120 0.390420 -0.341660
C  -4.838850 -4.334310 0.531190
H  -4.083570 -5.114560 0.682490
H  -5.438640 -4.554510 -0.364370
H  -5.517990 -4.287450 1.395560
F  -4.381140 3.344290 -1.952230
F  -4.499570 3.777650 0.152610
F  -6.070100 2.664760 -0.807280
