27

Ir  -0.144270 0.081800 -0.272670
C  1.556830 1.187150 -0.953650
N  2.753020 0.732300 -0.574260
C  1.482500 2.335820 -1.768570
C  3.892100 1.333200 -0.934210
C  2.653070 2.977420 -2.151480
H  0.505800 2.715740 -2.074060
C  3.887230 2.477670 -1.730360
C  5.145360 0.651270 -0.440400
H  2.611100 3.873220 -2.778690
H  4.818050 2.970060 -2.016480
H  4.944070 0.404400 0.619530
C  6.420410 1.486350 -0.494500
H  6.275890 2.439190 0.040760
H  6.644280 1.747250 -1.544770
C  7.604090 0.719220 0.087380
H  8.521680 1.326690 0.025120
H  7.423270 0.541300 1.163320
C  7.807340 -0.620380 -0.614120
H  8.639220 -1.175240 -0.149860
H  8.104550 -0.435700 -1.662500
C  6.531220 -1.456160 -0.602380
H  6.298130 -1.748550 0.438730
H  6.680310 -2.395020 -1.161180
C  5.351660 -0.680180 -1.173410
H  5.525570 -0.468840 -2.244360
H  4.423650 -1.267570 -1.114770
