21

Ir  0.044810 0.389160 0.041740
C  2.127950 0.998490 -0.166520
C  2.503940 2.175140 -0.821080
C  3.241140 0.282610 0.320200
C  3.807070 2.600170 -1.030390
F  1.554270 3.005120 -1.306170
Cl  2.976490 -1.203310 1.237740
C  4.594400 0.637420 0.143820
C  4.849750 1.820020 -0.552870
H  3.983550 3.535260 -1.565410
C  5.733710 -0.186990 0.713670
H  5.878970 2.140730 -0.720280
H  5.422150 -1.242030 0.654240
C  7.036070 -0.054160 -0.067650
H  7.776130 -0.776570 0.309590
H  6.887020 -0.247760 -1.140790
H  7.483460 0.947170 0.038150
C  5.947420 0.144110 2.192530
H  5.024430 -0.013510 2.768420
H  6.735690 -0.490340 2.628800
H  6.250320 1.196900 2.311820
