24

Ir  0.129920 -0.067490 0.195840
C  -1.900030 0.599070 0.294570
C  -2.949020 -0.111390 -0.333910
C  -2.248770 1.757670 1.014920
C  -4.243210 0.354550 -0.213620
H  -2.782740 -1.022000 -0.913420
C  -3.568730 2.229000 1.135880
H  -1.459260 2.335530 1.500960
C  -4.555230 1.500850 0.504710
O  -5.390450 -0.159950 -0.751790
H  -3.805210 3.131990 1.702160
O  -5.900500 1.729650 0.430260
C  -6.461810 0.572170 -0.171820
H  -7.143710 0.894280 -0.980780
C  -7.203680 -0.272920 0.857730
H  -6.448020 -0.542880 1.617830
C  -8.303200 0.544320 1.520910
H  -8.807380 -0.041300 2.304320
H  -7.896350 1.457550 1.977040
H  -9.069310 0.843370 0.785570
C  -7.735550 -1.545710 0.214230
H  -6.924880 -2.118700 -0.257240
H  -8.226190 -2.186510 0.962310
H  -8.483100 -1.311160 -0.562480
