24

Ir  -0.198400 0.344270 0.219170
C  1.875380 0.820820 0.194900
C  2.394150 1.988640 -0.285700
C  2.961860 -0.046230 0.629960
S  4.135350 2.107180 -0.255300
H  1.859520 2.844880 -0.697590
C  2.895360 -1.338170 1.185280
C  4.249830 0.519070 0.442270
C  4.060420 -2.006700 1.524180
H  1.925780 -1.820140 1.313340
C  5.443770 -0.142180 0.779850
C  5.318910 -1.416620 1.325800
H  4.001480 -3.011180 1.951070
C  6.779310 0.512970 0.496630
H  6.216110 -1.972570 1.605880
H  6.640910 1.594240 0.683460
C  7.905910 0.034120 1.403330
H  8.816510 0.627370 1.228170
H  7.636500 0.124700 2.466380
H  8.163800 -1.018960 1.207790
C  7.151890 0.346030 -0.979500
H  6.356410 0.729020 -1.635590
H  8.082020 0.887170 -1.216120
H  7.304010 -0.718660 -1.218240
