25

Ir  -0.377630 -0.308050 -0.361080
C  1.487740 -0.377060 -1.410750
C  2.681170 -0.054010 -0.752350
C  1.601970 -0.779440 -2.765560
C  3.955190 -0.146680 -1.334820
H  2.653700 0.290830 0.282770
C  0.399860 -1.073630 -3.618680
C  2.868750 -0.875880 -3.355490
C  5.145600 0.217030 -0.541800
C  4.037050 -0.575550 -2.662210
H  -0.186240 -0.155640 -3.791270
H  -0.281110 -1.791580 -3.141330
H  0.692130 -1.475210 -4.599990
H  2.940540 -1.189240 -4.401800
C  5.177400 1.314750 0.288340
C  6.377780 -0.532700 -0.477040
H  5.002210 -0.640780 -3.167920
S  6.661320 1.460050 1.133790
H  4.391180 2.057050 0.415500
C  7.272720 0.035600 0.394730
C  6.650350 -1.799310 -1.227130
H  8.267170 -0.330460 0.648570
H  7.483210 -2.353920 -0.771870
H  6.918330 -1.604620 -2.277980
H  5.762000 -2.448470 -1.241100
