23

Ir  -0.082540 0.002960 0.106940
C  -2.022210 -0.580150 -0.571350
C  -3.094850 0.326400 -0.602540
C  -2.354620 -1.885590 -0.940820
C  -4.398330 -0.039560 -0.950880
H  -2.910970 1.369170 -0.336820
N  -3.583320 -2.281340 -1.287750
H  -1.591250 -2.673430 -0.957760
C  -4.538400 -1.396230 -1.283320
C  -5.574540 0.934730 -0.955030
F  -5.751650 -1.861630 -1.630930
C  -6.634010 0.456010 0.049810
H  -7.491110 1.148730 0.060910
H  -7.005420 -0.545370 -0.204590
H  -6.212250 0.418690 1.066680
C  -5.136030 2.342840 -0.547440
H  -4.386800 2.755760 -1.240180
H  -6.007270 3.015670 -0.559070
H  -4.711410 2.362490 0.468420
C  -6.180390 1.009220 -2.364650
H  -7.032150 1.708420 -2.377860
H  -5.432820 1.368380 -3.088700
H  -6.537310 0.026850 -2.700390
