19

Ir  -0.120710 -0.079950 0.309510
C  -2.165010 0.416740 0.674560
C  -3.269600 -0.347440 0.334150
C  -2.541190 1.621290 1.324160
O  -3.271160 -1.605400 -0.245930
C  -4.606160 -0.013280 0.582540
C  -3.857220 1.989390 1.581910
H  -1.754040 2.316710 1.625760
C  -4.591070 -1.827510 -0.654170
O  -5.421420 -1.043140 0.167500
C  -4.944200 1.176460 1.215640
H  -4.088180 2.936350 2.074710
H  -4.849300 -2.890460 -0.534090
H  -4.715230 -1.516180 -1.715930
O  -6.187360 1.609870 1.526760
C  -7.289930 1.007290 0.902690
H  -7.207250 1.048000 -0.197450
H  -7.412240 -0.046360 1.199340
H  -8.175420 1.576980 1.215670
