26

Ir  0.273790 -0.083780 0.232440
C  -1.685380 0.675750 0.458890
S  -3.071760 -0.373660 0.327670
C  -2.134560 1.952690 0.699540
C  -4.232060 0.876610 0.570750
C  -3.564010 2.073750 0.761430
H  -1.457650 2.797320 0.835250
C  -5.705650 0.626250 0.552270
C  -4.253480 3.300620 0.982080
N  -4.820330 4.299400 1.156700
H  -6.188800 1.596240 0.769230
C  -6.142850 -0.366370 1.638000
H  -5.815480 0.001240 2.623310
H  -5.616530 -1.324430 1.473160
C  -7.648880 -0.598270 1.617260
H  -7.928870 -1.335750 2.387070
H  -8.162750 0.341810 1.887710
C  -8.127240 -1.053230 0.242750
H  -9.222120 -1.179910 0.238510
H  -7.697760 -2.047580 0.021220
C  -7.700420 -0.071960 -0.843510
H  -8.216860 0.891990 -0.685340
H  -8.017060 -0.432610 -1.835880
C  -6.194560 0.161640 -0.827180
H  -5.668230 -0.774270 -1.090000
H  -5.904210 0.904730 -1.586770
