33

Ir  -0.358940 -0.455200 -0.321130
C  1.389550 -1.697520 -0.533440
C  1.239890 -3.092380 -0.439260
C  2.752210 -1.283070 -0.571780
C  2.317950 -3.975910 -0.282200
H  0.251640 -3.553820 -0.451170
C  3.746130 -2.283920 -0.352050
C  3.486060 -0.036080 -0.737760
N  3.583150 -3.591050 -0.195980
H  2.125290 -5.053090 -0.196140
N  4.965320 -1.675180 -0.322620
C  4.832170 -0.327060 -0.569940
C  2.936470 1.277000 -1.205780
H  5.827030 -2.178240 -0.176840
C  6.066520 0.559950 -0.618760
C  2.480720 1.218690 -2.662190
H  3.699160 2.060810 -1.098730
H  2.117610 1.596570 -0.545980
H  2.048440 2.175140 -2.996680
H  1.717190 0.438360 -2.796530
H  3.322760 0.971510 -3.326870
C  5.972430 1.647070 0.462330
H  6.863870 2.295020 0.437630
H  5.086470 2.282510 0.329970
H  5.907250 1.191030 1.461960
C  7.332800 -0.261020 -0.345090
H  7.486680 -1.042470 -1.106220
H  8.214490 0.396590 -0.369610
H  7.305580 -0.735470 0.648710
C  6.217560 1.199800 -2.007240
H  7.134880 1.809500 -2.049920
H  6.283640 0.425050 -2.786150
H  5.369230 1.850730 -2.255430
