22

Ir  0.388390 0.397340 -0.064990
C  -1.563100 1.100110 -0.602580
C  -2.666920 0.300680 -0.280830
C  -1.814960 2.344260 -1.232100
C  -3.997020 0.675470 -0.504090
H  -2.493240 -0.697220 0.125960
C  -0.726170 3.265320 -1.697950
C  -3.153380 2.715930 -1.442390
C  -5.101130 -0.225570 -0.135340
C  -4.237140 1.920230 -1.090870
H  -0.891460 3.568900 -2.743190
H  0.251960 2.777870 -1.625270
H  -0.702590 4.195250 -1.105810
Cl  -3.509410 4.264710 -2.175770
C  -5.024940 -1.176520 0.860330
C  -6.386100 -0.248480 -0.769410
H  -5.249590 2.284950 -1.268420
S  -6.475240 -2.079000 1.015940
H  -4.185710 -1.367050 1.527460
C  -7.225280 -1.196860 -0.253320
H  -6.660260 0.402880 -1.600070
H  -8.241930 -1.434860 -0.562920
