17

Ir  0.197120 -0.255040 -0.175840
C  2.280850 -0.210640 -0.561920
C  3.186450 0.357270 0.350890
C  2.862660 -0.728160 -1.746660
C  4.565040 0.420830 0.160010
H  2.794940 0.812650 1.263930
C  2.047990 -1.314040 -2.771090
C  4.243500 -0.690480 -1.977190
C  5.097460 -0.124430 -1.030240
C  5.460720 1.062300 1.173890
N  1.419000 -1.800810 -3.616820
H  4.655120 -1.102580 -2.900300
C  6.507080 -0.090030 -1.266970
N  7.654420 -0.055870 -1.438740
H  4.886620 1.401040 2.046800
H  5.984180 1.931700 0.745020
H  6.242320 0.366140 1.516590
