18

Ir  -0.264290 -0.115800 0.288840
C  -2.255230 0.672250 0.655550
C  -3.501650 0.039240 0.511850
C  -2.326970 2.027920 1.026700
C  -4.720890 0.722120 0.665920
Cl  -3.668420 -1.669590 0.139550
C  -3.520880 2.744930 1.179030
H  -1.399530 2.579960 1.187860
C  -4.732680 2.074990 0.985910
O  -5.915590 0.088060 0.483600
N  -3.482400 4.107820 1.449020
H  -5.696990 2.580920 1.074470
H  -4.311600 4.488420 1.887470
H  -2.633390 4.419010 1.905550
C  -6.406300 -0.581840 1.617170
H  -5.723240 -1.385100 1.943220
H  -6.564560 0.115250 2.460510
H  -7.371080 -1.028730 1.339080
