26

C  0.220270 -0.210360 0.027610
C  -0.714200 -0.995270 -0.677340
C  -0.456480 0.670240 0.916720
C  -2.006470 -0.642490 -0.246490
H  -0.487050 -1.775870 -1.403320
C  -1.838830 0.426970 0.784520
C  0.246910 1.660200 1.810740
C  -3.175620 -1.215700 -0.724200
C  -2.873780 1.053300 1.480220
C  -4.498360 -0.938480 -0.361880
H  -3.049090 -1.989830 -1.486310
C  -4.249890 0.855060 1.384310
H  -2.566500 1.805940 2.209800
C  -4.973380 -0.020480 0.572850
Cl  -5.715540 -1.874640 -1.194980
H  -4.860940 1.476380 2.044780
H  -6.060490 0.009990 0.680470
H  1.318210 1.550220 1.569450
C  -0.124000 3.114790 1.512050
H  0.529590 3.804490 2.068750
H  -0.022610 3.338750 0.438990
H  -1.162520 3.347920 1.792220
C  0.101040 1.321990 3.295630
H  0.430300 0.291010 3.491260
H  0.712190 2.000460 3.911660
H  -0.941310 1.408610 3.639410
