16

C  -0.585310 -0.083190 -0.329370
C  -1.429320 0.513720 -1.263350
C  -1.133250 -1.004630 0.606080
C  -2.789660 0.173150 -1.271020
H  -1.037820 1.234040 -1.985660
C  -2.484060 -1.348000 0.618800
C  -0.251820 -1.647260 1.646480
C  -3.286140 -0.742950 -0.341010
C  -3.964920 0.513530 -2.018290
H  -2.891430 -2.049060 1.346460
O  -4.606540 -0.911080 -0.528950
H  -4.076740 1.196820 -2.859940
N  -5.009240 -0.123310 -1.575200
F  -0.954900 -2.309340 2.564900
F  0.458060 -0.702880 2.330690
F  0.635340 -2.488150 1.138880
