19

C  0.546660 0.317370 -0.148630
C  1.608170 -0.359920 -0.747100
C  0.844450 1.575360 0.384890
C  2.913480 0.162810 -0.813760
O  1.570830 -1.599050 -1.319350
C  2.147400 2.137630 0.339490
H  0.028760 2.153720 0.820940
C  3.188040 1.419470 -0.268450
C  3.689260 -0.849180 -1.486640
C  2.825120 -1.862360 -1.754490
N  2.400860 3.371020 0.902740
H  4.196810 1.838250 -0.308020
H  4.747590 -0.820750 -1.736340
H  2.958530 -2.821290 -2.250390
H  3.265370 3.804240 0.611940
C  1.358760 4.259630 1.326640
H  1.808740 5.196390 1.682620
H  0.786430 3.835150 2.168660
H  0.634560 4.507990 0.525790
