18

C  0.321410 -0.378080 -0.056050
C  1.281230 0.314530 0.721670
C  0.832250 -1.385900 -0.870600
C  2.635160 0.002190 0.635950
C  1.287360 1.370880 1.693220
C  2.208920 -1.693450 -0.944170
H  0.142610 -1.985940 -1.470170
C  3.168610 -1.003380 -0.194970
O  3.348630 0.791230 1.461070
H  0.442320 1.928910 2.096320
N  2.489760 1.640000 2.114960
H  2.527380 -2.500100 -1.606310
N  4.515080 -1.228170 -0.234710
H  5.062910 -0.776180 0.483210
C  5.094190 -2.331850 -0.939740
H  6.184470 -2.310010 -0.814110
H  4.885260 -2.270410 -2.021660
H  4.726540 -3.313660 -0.583540
