25

C  -0.356690 -0.650540 -0.257220
C  0.858430 -0.143480 0.202520
C  -0.385860 -1.851310 -1.010340
C  2.039470 -0.832520 -0.118650
H  0.889660 0.769040 0.801450
C  0.771860 -2.545020 -1.338680
H  -1.354510 -2.250260 -1.321600
C  1.971770 -2.004050 -0.878140
C  3.457410 -0.680600 0.110510
H  0.749740 -3.468780 -1.918770
O  3.208840 -2.487340 -1.072290
C  4.178510 0.408560 0.866250
N  4.111930 -1.655870 -0.455500
C  5.686840 0.163670 0.840940
H  6.202900 0.963200 1.394260
H  5.939600 -0.801440 1.301870
H  6.070050 0.144790 -0.189000
C  3.868780 1.756850 0.199700
H  2.789950 1.973670 0.197980
H  4.377010 2.570650 0.740080
H  4.217650 1.767540 -0.843960
C  3.683210 0.414700 2.318980
H  4.190660 1.209660 2.887420
H  2.599390 0.590290 2.385110
H  3.898250 -0.546510 2.809230
