26

C  0.283420 -0.708230 -0.815720
C  -1.165780 -0.811790 -1.254660
C  0.952120 -1.716990 -1.436980
C  -2.224650 -0.869950 -0.132200
H  -1.370420 0.094480 -1.861430
C  -1.176970 -2.013870 -2.158690
Cl  2.648960 -2.033900 -1.345640
C  0.061330 -2.535570 -2.252470
H  -2.069810 -2.403860 -2.647600
H  0.381470 -3.404440 -2.828140
H  -2.028700 -1.787930 0.456720
C  -3.641190 -0.979060 -0.705640
H  -3.731120 -1.868030 -1.348170
H  -3.821920 -0.103200 -1.356230
C  -4.708190 -1.029090 0.382800
H  -5.709220 -1.082100 -0.075180
H  -4.585230 -1.959920 0.965820
C  -4.610020 0.165570 1.322280
H  -5.362210 0.090260 2.124330
H  -4.842410 1.089080 0.761570
C  -3.208390 0.275400 1.908040
H  -3.018520 -0.597670 2.558940
H  -3.125330 1.165110 2.552940
C  -2.145230 0.326370 0.817480
H  -2.252080 1.254430 0.227930
H  -1.143310 0.379290 1.274110
