17

C  0.217040 -0.490160 -0.170740
C  1.250220 0.054380 0.658560
C  0.550580 -1.426460 -1.133010
C  2.613860 -0.348240 0.463430
C  0.972220 0.991910 1.688530
C  1.888930 -1.835810 -1.331290
H  -0.231170 -1.876950 -1.750440
C  2.890910 -1.303310 -0.557330
C  3.624840 0.210050 1.284620
C  1.974710 1.515910 2.471380
H  -0.066980 1.281800 1.856860
H  2.132800 -2.572860 -2.098170
Cl  4.525700 -1.815530 -0.836560
H  4.656990 -0.104690 1.124030
C  3.314370 1.123790 2.264260
H  1.731970 2.229960 3.261790
H  4.107260 1.541420 2.889070
