26

C  0.396980 -0.507530 -0.578530
C  0.332160 -1.398770 -1.674390
C  -0.799280 -0.177480 0.069020
H  1.259580 -1.691840 -2.177790
N  -0.789600 -1.925820 -2.143670
C  -2.030870 -0.699160 -0.377690
Cl  -0.685010 0.905190 1.430300
C  -1.893570 -1.573490 -1.506020
C  -3.449090 -0.646160 -0.064030
N  -3.137070 -2.013480 -1.844000
C  -4.055090 -1.465920 -0.991270
C  -4.207270 0.111750 1.011960
H  -3.317070 -2.651380 -2.606120
H  -5.110080 -1.700380 -1.102560
C  -3.753080 -0.344170 2.405950
H  -4.305630 0.204120 3.185960
H  -3.948480 -1.419170 2.539860
H  -2.681610 -0.171960 2.565320
C  -4.008720 1.624110 0.834010
H  -4.388700 1.947780 -0.147370
H  -4.558500 2.176170 1.613350
H  -2.951020 1.907600 0.900540
C  -5.708960 -0.173560 0.898300
H  -6.249820 0.380480 1.680230
H  -6.113720 0.146570 -0.074370
H  -5.933070 -1.242690 1.035960
