24

C  0.181830 0.145510 0.332520
C  -0.837140 -0.485450 -0.377870
C  -0.531120 0.919560 1.289840
N  -2.012020 -0.075180 0.154090
H  -0.798460 -1.204340 -1.193990
H  -0.130700 1.571070 2.067300
N  -1.844340 0.777140 1.162960
C  -3.352710 -0.448680 -0.261820
H  -3.215440 -1.169930 -1.085410
C  -4.119480 0.762420 -0.788130
H  -3.567030 1.206860 -1.631680
H  -4.141140 1.519080 0.013660
C  -5.537410 0.384840 -1.200500
H  -6.079090 1.281090 -1.542330
H  -5.497140 -0.300090 -2.067300
C  -6.288690 -0.294140 -0.060410
H  -7.298650 -0.588780 -0.387770
H  -6.424980 0.428220 0.764240
C  -5.522570 -1.506440 0.458210
H  -5.482750 -2.276650 -0.333830
H  -6.053500 -1.966280 1.306750
C  -4.104400 -1.135310 0.875670
H  -4.124870 -0.440580 1.731430
H  -3.540840 -2.024150 1.201030
