17

C  -0.198540 0.604020 0.220150
C  -0.254160 1.981990 0.465440
C  -1.399340 -0.056280 -0.066310
C  -1.475030 2.661650 0.446240
H  0.665320 2.542190 0.645920
C  -2.631950 0.619840 -0.094460
O  -1.370230 -1.409790 -0.239370
C  -2.661020 1.993600 0.169630
Cl  -1.508630 4.366150 0.763370
C  -3.822100 -0.160340 -0.379350
C  -2.351290 -2.004170 -1.004710
H  -3.607860 2.535930 0.154210
C  -3.704980 -1.429120 -0.801100
H  -4.801970 0.307420 -0.255760
Cl  -1.922060 -1.869220 -2.792810
H  -2.296840 -3.080060 -0.804120
H  -4.566750 -2.045400 -1.062960
