103
comp140_8_QRCR_v2.log	Energy: -1401191.1415375
N         -1.79871       -1.36645       -1.57960
C         -2.27298       -2.53072       -1.10113
C         -3.41966       -3.11781       -1.64576
C         -4.07271       -2.48764       -2.69753
C         -3.55978       -1.28958       -3.18978
C         -2.41617       -0.76548       -2.59937
H         -1.96226        0.16967       -2.93930
H         -4.03638       -0.76198       -4.01745
H         -3.80612       -4.05598       -1.24803
C         -1.51596       -3.12139        0.02440
N         -0.45981       -2.40962        0.46528
C          0.25810       -2.85592        1.50194
C         -0.03257       -4.05691        2.14019
C         -1.10771       -4.81654        1.68446
C         -1.86051       -4.34032        0.61793
H         -2.71356       -4.91232        0.25356
H          0.57706       -4.38180        2.98507
H          1.06186       -2.19002        1.83198
Ir        -0.17245       -0.38954       -0.42538
H          1.29824        0.09708       -2.74212
B         -1.52071        0.35484        0.86835
O         -2.88921        0.15046        0.67564
C         -3.56736        0.45171        1.89412
C         -4.93240        1.03140        1.57351
H         -4.84810        1.88958        0.89462
H         -5.45272        1.35302        2.48891
H         -5.55075        0.26795        1.07808
C         -3.71499       -0.86223        2.65772
H         -4.29427       -0.74422        3.58542
H         -4.23439       -1.58612        2.01210
H         -2.72783       -1.27851        2.90831
C         -2.57276        1.44329        2.58644
O         -1.31596        0.99907        2.07823
C         -2.76867        2.88622        2.13390
H         -2.77029        2.94601        1.03774
H         -3.69720        3.32102        2.53277
H         -1.91877        3.48594        2.48987
C         -2.54414        1.36561        4.10240
H         -2.24187        0.36818        4.44682
H         -1.81506        2.09078        4.49338
H         -3.52891        1.60805        4.53112
B          1.19212        0.42585        0.83306
O          1.94855        1.58251        0.66673
C          2.48111        1.97767        1.92876
C          3.83841        2.62320        1.71272
H          4.50954        1.96257        1.14891
H          3.71333        3.55251        1.13696
H          4.31337        2.87923        2.67243
C          1.50094        2.98544        2.52348
H          1.84803        3.38435        3.48832
H          1.39028        3.82161        1.81804
H          0.51115        2.52355        2.64469
C          2.51885        0.62165        2.72147
O          1.50453       -0.14198        2.07089
C          2.16026        0.74215        4.19337
H          1.13842        1.12223        4.31795
H          2.21268       -0.24983        4.66710
H          2.85962        1.40862        4.72154
C          3.83222       -0.13171        2.55758
H          4.09685       -0.23373        1.49728
H          4.66211        0.36295        3.08410
H          3.71653       -1.14331        2.97535
B         -0.26203        1.48702       -1.17255
O          0.06259        1.81540       -2.50260
C          0.15945        3.23819       -2.60185
C          1.60635        3.61012       -2.28694
H          1.87567        3.27262       -1.27459
H          2.26437        3.09465       -3.00271
H          1.78514        4.69203       -2.37428
C         -0.20869        3.66940       -4.00872
H          0.53675        3.28451       -4.72034
H         -0.22496        4.76700       -4.09333
H         -1.19142        3.28001       -4.30569
C         -0.83164        3.69903       -1.48441
O         -0.72888        2.63818       -0.54134
C         -0.46187        5.00376       -0.80162
H         -0.44304        5.83849       -1.51950
H         -1.20458        5.23624       -0.02416
H          0.51931        4.92957       -0.31609
C         -2.27921        3.75022       -1.96700
H         -2.55814        2.81212       -2.46899
H         -2.93994        3.87296       -1.09662
H         -2.45829        4.58801       -2.65711
H         -4.97358       -2.92930       -3.12894
H         -1.36605       -5.76530        2.15983
C          1.73340       -0.71730       -2.16581
C          1.23883       -2.00809       -2.05125
C          3.05636       -0.74867       -1.58904
N          2.15921       -2.81920       -1.42110
H          0.34586       -2.44501       -2.49330
C          4.07060        0.20504       -1.44683
C          3.28047       -2.07350       -1.13332
C          2.00276       -4.21885       -1.14802
C          5.27850       -0.18076       -0.87831
H          3.90354        1.23307       -1.77243
C          4.48569       -2.46154       -0.54010
H          2.17891       -4.43746       -0.08346
H          2.69891       -4.82806       -1.74934
H          0.97530       -4.52182       -1.38753
C          5.48221       -1.49856       -0.42980
H          6.08240        0.55073       -0.76757
H          4.64826       -3.48289       -0.18960
H          6.44010       -1.76936        0.02057
