101
comp9_0_QRCR.log	Energy: -1626285.8000469
N         -1.68110       -1.37800       -0.38691
C         -2.68700       -0.98799       -1.18839
C         -3.68125       -1.88765       -1.58777
C         -3.63385       -3.19933       -1.13539
C         -2.59438       -3.58266       -0.29207
C         -1.63725       -2.63636        0.05260
H         -0.79829       -2.87974        0.70714
H         -2.51678       -4.60015        0.09375
H         -4.48036       -1.56674       -2.25545
C         -2.65355        0.42089       -1.63283
N         -1.55900        1.12151       -1.28373
C         -1.42135        2.38368       -1.69845
C         -2.39052        3.02185       -2.46529
C         -3.54691        2.32318       -2.80000
C         -3.67767        1.00498       -2.38350
H         -4.57676        0.44074       -2.62803
H         -2.23594        4.05416       -2.78339
H         -0.48748        2.87024       -1.40086
Ir        -0.09749        0.10294        0.05617
H         -1.13074       -0.44528        2.70187
B          1.05675       -0.68794       -1.38269
O          0.79136       -1.94321       -1.92384
C          1.56872       -2.10116       -3.10922
C          1.98016       -3.55615       -3.23957
H          2.48374       -3.90689       -2.32964
H          2.65359       -3.70418       -4.09784
H          1.08671       -4.17937       -3.39389
C          0.68080       -1.69551       -4.28279
H          1.17386       -1.85202       -5.25360
H         -0.23575       -2.30317       -4.25465
H          0.38814       -0.63822       -4.20130
C          2.74989       -1.10011       -2.86832
O          2.13585       -0.11265       -2.03676
C          3.89611       -1.72071       -2.07683
H          3.51881       -2.16908       -1.14830
H          4.44089       -2.47383       -2.66513
H          4.60129       -0.92664       -1.79232
C          3.27979       -0.42512       -4.12067
H          2.49929        0.16035       -4.62340
H          4.09433        0.26285       -3.84977
H          3.68164       -1.16567       -4.82947
B          1.35757        1.51551        0.19876
O          2.38379        1.59914        1.14262
C          3.34887        2.54743        0.68907
C          4.01984        3.19290        1.88746
H          3.28435        3.60950        2.58805
H          4.61002        2.43871        2.42885
H          4.70345        3.99642        1.57253
C          4.37006        1.78051       -0.14589
H          5.19340        2.42434       -0.48939
H          4.78846        0.97266        0.47173
H          3.87753        1.31285       -1.01015
C          2.46866        3.50926       -0.17506
O          1.43996        2.63441       -0.63779
C          3.17481        4.11507       -1.37441
H          3.50632        3.33324       -2.06923
H          2.48451        4.77871       -1.91664
H          4.04669        4.71108       -1.06326
C          1.80574        4.60276        0.65705
H          1.32513        4.17722        1.54997
H          2.52484        5.36930        0.98140
H          1.03030        5.09342        0.04985
B          1.16227       -0.94471        1.24282
O          0.86529       -1.29048        2.57109
C          2.05838       -1.76773        3.19831
C          2.73238       -0.56551        3.85255
H          2.97414        0.19441        3.09529
H          2.02735       -0.11583        4.56757
H          3.64445       -0.84803        4.39896
C          1.69161       -2.80579        4.24248
H          1.12101       -2.32894        5.05318
H          2.59349       -3.25871        4.68244
H          1.06953       -3.60381        3.81634
C          2.86402       -2.31708        1.97454
O          2.40444       -1.48454        0.91581
C          4.37176       -2.17935        2.09259
H          4.75583       -2.73449        2.96242
H          4.85250       -2.58358        1.18942
H          4.66412       -1.12582        2.18593
C          2.49527       -3.75508        1.61871
H          1.40424       -3.87416        1.54715
H          2.92164       -3.99642        0.63411
H          2.88079       -4.47841        2.35238
H         -4.40069       -3.91522       -1.43933
H         -4.34084        2.79742       -3.38089
C         -1.61755        0.40281        2.21745
C         -2.97076        0.38129        1.83379
C         -0.93061        1.61890        2.08576
C         -3.61936        1.51223        1.29854
S         -4.09567       -0.93659        1.89977
C         -1.58998        2.77079        1.58953
H          0.08057        1.69812        2.48738
N         -4.93296        1.31643        0.93545
C         -2.90967        2.72488        1.18915
C         -5.31871        0.10880        1.18135
H         -1.03191        3.70577        1.51379
H         -3.42177        3.60259        0.79135
C         -6.68135       -0.41830        0.89487
H         -6.64211       -1.26423        0.19068
H         -7.28225        0.38798        0.45564
H         -7.17568       -0.77357        1.81219
