105
comp23_2_QRCF.log	Energy: -1435871.6562689
N         -1.03218       -2.09792        0.61632
C         -2.15006       -2.37431       -0.07766
C         -2.79181       -3.61013        0.05565
C         -2.26490       -4.56137        0.92058
C         -1.10948       -4.25569        1.63564
C         -0.52612       -3.00793        1.44959
H          0.37587       -2.70622        1.98663
H         -0.66065       -4.96939        2.32817
H         -3.69373       -3.83141       -0.51453
C         -2.64147       -1.30047       -0.96832
N         -1.88770       -0.18612       -1.02033
C         -2.26396        0.83295       -1.79829
C         -3.42924        0.79428       -2.55666
C         -4.22146       -0.34842       -2.51153
C         -3.81779       -1.41264       -1.71440
H         -4.42087       -2.31899       -1.66855
H         -3.70074        1.65179       -3.17436
H         -1.57493        1.68283       -1.81485
Ir        -0.03158       -0.15744        0.20582
H         -0.00856        2.20491        2.12703
B          1.19158       -0.99475       -1.13592
O          1.31981       -2.37989       -1.22955
C          2.00438       -2.69042       -2.44177
C          2.87072       -3.91669       -2.22031
H          3.53752       -3.77846       -1.35958
H          3.48034       -4.13914       -3.10969
H          2.23110       -4.78847       -2.01669
C          0.93793       -2.97969       -3.49507
H          1.37278       -3.29887       -4.45380
H          0.28675       -3.78410       -3.12209
H          0.31294       -2.09120       -3.66880
C          2.79464       -1.36696       -2.72705
O          1.95718       -0.38431       -2.11695
C          4.14598       -1.32170       -2.02198
H          4.02435       -1.52854       -0.95077
H          4.86447       -2.02806       -2.46362
H          4.55650       -0.30556       -2.11138
C          2.95789       -1.02643       -4.19771
H          1.98594       -0.89687       -4.69087
H          3.51252       -0.08147       -4.29537
H          3.52388       -1.80979       -4.72531
B          0.79717        1.59045       -0.40716
O          1.74711        2.36821        0.25588
C          2.24532        3.35489       -0.64500
C          2.62121        4.59880        0.13840
H          1.78480        4.94845        0.75768
H          3.46581        4.37219        0.80616
H          2.92930        5.41365       -0.53497
C          3.47368        2.75361       -1.32289
H          3.96751        3.46646       -1.99995
H          4.18995        2.45411       -0.54406
H          3.19261        1.84754       -1.87877
C          1.04138        3.53425       -1.63014
O          0.42700        2.24656       -1.58452
C          1.43857        3.83643       -3.06434
H          2.04377        3.02365       -3.48524
H          0.53544        3.94049       -3.68435
H          2.00676        4.77742       -3.12947
C          0.01409        4.54905       -1.13740
H         -0.32518        4.30593       -0.11993
H          0.40423        5.57747       -1.16167
H         -0.86644        4.50478       -1.79737
B          1.62683       -0.26648        1.35471
O          1.57951       -0.22848        2.75813
C          2.90545       -0.02019        3.25101
C          3.10246        1.48738        3.38158
H          2.97597        1.97482        2.40356
H          2.33017        1.88359        4.05774
H          4.08845        1.74291        3.79734
C          3.04714       -0.69480        4.60266
H          2.39283       -0.19747        5.33392
H          4.08242       -0.62707        4.97119
H          2.75901       -1.75334        4.55701
C          3.77221       -0.64211        2.10669
O          2.95361       -0.42801        0.96240
C          5.11427        0.03329        1.88614
H          5.74491       -0.02916        2.78658
H          5.64627       -0.46181        1.06027
H          4.98311        1.08871        1.61603
C          3.96182       -2.14924        2.25958
H          2.99775       -2.65051        2.43002
H          4.38495       -2.54975        1.32679
H          4.64224       -2.40207        3.08620
H         -2.75260       -5.53199        1.03386
H         -5.14267       -0.41669       -3.09438
C         -1.00966        1.82340        1.91264
C         -1.38476        0.54765        2.40088
N         -1.84393        2.64888        1.26841
C         -2.68855        0.08570        2.19060
H         -0.66231       -0.00868        2.99959
C         -3.05390        2.16795        1.05362
C         -3.55987        0.89962        1.46982
H         -3.00156       -0.89031        2.57063
N         -4.05991        2.80126        0.37648
C         -4.91111        0.79707        0.98623
C         -5.16439        1.97775        0.32940
H         -3.97211        3.71787       -0.03789
C         -5.81672       -0.37912        1.15666
H         -6.06783        2.29853       -0.18491
C         -7.11700       -0.28914        0.37651
H         -6.03673       -0.51899        2.23057
H         -5.26666       -1.28941        0.85594
H         -7.71327        0.58233        0.68919
H         -7.73722       -1.18462        0.52890
H         -6.92459       -0.19051       -0.70376
