99
comp45_2_QRCF_v2.log	Energy: -1435506.1767761
N          0.30401       -2.53074       -0.62720
C          1.38882       -3.08678       -0.05684
C          1.56723       -4.47439       -0.05573
C          0.61291       -5.28593       -0.65393
C         -0.49913       -4.69216       -1.24644
C         -0.61301       -3.30768       -1.21163
H         -1.45344       -2.77533       -1.66817
H         -1.27286       -5.28798       -1.73327
H          2.44318       -4.91918        0.41544
C          2.34839       -2.15380        0.57112
N          2.01249       -0.85307        0.53893
C          2.79572        0.05119        1.13103
C          3.98574       -0.29368        1.75888
C          4.36417       -1.63420        1.77855
C          3.53343       -2.57496        1.18462
H          3.80520       -3.63002        1.20159
H          4.59643        0.48020        2.22678
H          2.43230        1.08046        1.10711
Ir         0.08675       -0.33302       -0.39954
H         -0.11009       -0.79878       -3.16117
B         -0.81031       -0.60790        1.40860
O         -2.02669       -0.15443        1.88101
C         -2.27178       -0.72763        3.16379
C         -2.97307        0.30060        4.03271
H         -2.40810        1.24105        4.06329
H         -3.10505       -0.06999        5.06109
H         -3.96767        0.51773        3.61593
C         -3.17031       -1.94271        2.95195
H         -3.46665       -2.41097        3.90227
H         -4.07925       -1.62152        2.42352
H         -2.66528       -2.69581        2.32899
C         -0.83123       -1.11723        3.63739
O         -0.17158       -1.36068        2.39364
C         -0.09794        0.04045        4.30900
H         -0.12845        0.93469        3.66970
H         -0.51456        0.27824        5.29902
H          0.95772       -0.24300        4.43553
C         -0.75214       -2.36574        4.49610
H         -1.13578       -3.24540        3.96308
H          0.29726       -2.56260        4.76145
H         -1.32214       -2.24097        5.42973
B         -0.06842        1.61966        0.15918
O         -0.35905        2.70629       -0.65655
C         -0.60022        3.85188        0.15959
C         -0.11720        5.08819       -0.57656
H          0.92533        4.97376       -0.90089
H         -0.73598        5.24579       -1.47234
H         -0.19943        5.98524        0.05647
C         -2.10528        3.92194        0.39843
H         -2.38880        4.80769        0.98618
H         -2.61124        3.96921       -0.57614
H         -2.46125        3.01190        0.90176
C          0.20521        3.50937        1.46101
O          0.20448        2.07954        1.44983
C         -0.44061        3.98687        2.75015
H         -1.43270        3.53769        2.88700
H          0.18569        3.69691        3.60722
H         -0.54364        5.08297        2.75966
C          1.65975        3.96371        1.40121
H          2.14509        3.62979        0.47307
H          1.75183        5.05764        1.47399
H          2.19857        3.52153        2.25364
B         -1.76946       -0.04061       -1.16430
O         -2.25283       -0.83761       -2.22923
C         -3.48060       -0.27656       -2.70333
C         -3.13268        0.65498       -3.86020
H         -2.48640        1.47545       -3.51485
H         -2.58401        0.08502       -4.62486
H         -4.02946        1.08536       -4.32968
C         -4.39249       -1.39228       -3.17795
H         -3.95012       -1.88707       -4.05575
H         -5.37777       -0.99827       -3.47114
H         -4.53811       -2.15045       -2.39729
C         -3.98054        0.49844       -1.44129
O         -2.75661        0.86474       -0.81773
C         -4.78391        1.75190       -1.73798
H         -5.69877        1.51382       -2.30259
H         -5.07935        2.22952       -0.79238
H         -4.19273        2.47897       -2.30937
C         -4.74054       -0.39385       -0.46357
H         -4.18168       -1.31959       -0.26452
H         -4.83442        0.14308        0.49067
H         -5.74540       -0.65221       -0.82978
H          0.73737       -6.37099       -0.65726
H          5.29339       -1.94706        2.25969
C          0.83606       -0.48367       -2.72627
O          1.89175       -1.34785       -2.88906
C          1.30077        0.74694       -2.29049
C          3.00552       -0.70609       -2.52654
C          2.72994        0.58018       -2.15994
H          0.76132        1.69172       -2.26022
H          3.93299       -1.27296       -2.54197
C          3.67018        1.57019       -1.63913
O          3.37939        2.68413       -1.27506
O          4.92412        1.08917       -1.58038
C          5.89121        1.96940       -1.04444
H          6.85110        1.44194       -1.09457
H          5.65382        2.22433       -0.00005
H          5.93964        2.90451       -1.62172
