93
comp51_2_QRCF_v2.log	Energy: -1783580.8953931
N          1.69843       -1.78117       -0.71483
C          2.89293       -1.82314       -0.09912
C          3.69968       -2.96406       -0.17433
C          3.26563       -4.05865       -0.90858
C          2.03170       -3.99187       -1.55222
C          1.28022       -2.83225       -1.42175
H          0.30371       -2.72416       -1.89749
H          1.64934       -4.82491       -2.14384
H          4.65690       -2.99936        0.34492
C          3.27184       -0.62082        0.67196
N          2.33553        0.34214        0.76016
C          2.57881        1.44448        1.47507
C          3.79085        1.65425        2.12236
C          4.77902        0.67776        2.02451
C          4.51469       -0.47551        1.29684
H          5.27327       -1.25284        1.20951
H          3.94792        2.57167        2.69160
H          1.75210        2.15680        1.53363
Ir         0.44711       -0.00907       -0.34364
H          0.74441       -0.05794       -3.12422
B         -0.41712       -1.08411        1.16925
O         -0.13835       -2.43977        1.33083
C         -0.62209       -2.85803        2.60650
C         -1.09842       -4.29534        2.50739
H         -1.83085       -4.41481        1.69878
H         -1.55510       -4.62915        3.45185
H         -0.24333       -4.95246        2.28941
C          0.54761       -2.75386        3.58165
H          0.28936       -3.12500        4.58442
H          1.38312       -3.35407        3.19189
H          0.89007       -1.71200        3.66748
C         -1.74477       -1.80608        2.89295
O         -1.26455       -0.66333        2.18104
C         -3.08733       -2.19949        2.28622
H         -2.97148       -2.43356        1.21985
H         -3.53902       -3.05427        2.81098
H         -3.77516       -1.34490        2.35885
C         -1.91592       -1.43475        4.35494
H         -0.99816       -0.99708        4.76819
H         -2.71798       -0.68814        4.45287
H         -2.19446       -2.31353        4.95692
B         -0.72359        1.49002        0.41396
O         -1.89168        2.00867       -0.14067
C         -2.59725        2.73417        0.86739
C         -3.33801        3.88929        0.21761
H         -2.66378        4.51963       -0.37629
H         -4.11229        3.49401       -0.45659
H         -3.83437        4.51670        0.97369
C         -3.58801        1.76292        1.50155
H         -4.20605        2.24740        2.27174
H         -4.25108        1.37380        0.71574
H         -3.05248        0.90853        1.93669
C         -1.44302        3.15532        1.84800
O         -0.44424        2.16451        1.59616
C         -1.81159        3.09242        3.32087
H         -2.07427        2.06819        3.61348
H         -0.94933        3.40612        3.92807
H         -2.65387        3.76266        3.55171
C         -0.84867        4.51792        1.51553
H         -0.58425        4.58665        0.45221
H         -1.54103        5.33571        1.76440
H          0.07322        4.65754        2.09951
B         -1.26641       -0.49421       -1.31530
O         -1.41128       -0.40246       -2.70611
C         -2.79506       -0.55432       -3.03383
C         -3.40292        0.84443       -3.06589
H         -3.28547        1.33405       -2.08830
H         -2.85777        1.44537       -3.80880
H         -4.46600        0.82806       -3.34809
C         -2.91540       -1.21772       -4.39318
H         -2.51416       -0.54748       -5.16764
H         -3.96794       -1.42832       -4.63769
H         -2.34994       -2.15790       -4.43496
C         -3.31517       -1.41102       -1.83182
O         -2.44051       -1.01484       -0.77952
C         -4.74823       -1.12531       -1.41981
H         -5.44869       -1.34393       -2.24058
H         -5.01905       -1.75642       -0.56052
H         -4.87106       -0.07752       -1.11891
C         -3.12303       -2.91043       -2.04505
H         -2.09396       -3.13404       -2.36260
H         -3.29955       -3.42964       -1.09177
H         -3.81681       -3.31662       -2.79576
H          3.88375       -4.95648       -0.97600
H          5.74657        0.80883        2.51413
C          1.35194        0.57263       -2.47523
S          3.09421        0.49236       -2.58170
C          0.92765        1.78073       -1.90812
C          3.27205        2.02478       -1.80898
C          2.06331        2.58596       -1.53322
H         -0.07437        2.18898       -2.03528
H          4.25335        2.42544       -1.56130
Cl         1.90091        4.12218       -0.77003
