99
comp34_6_QRCR.log	Energy: -1412250.4348097
N         -1.84180       -1.47404       -0.17471
C         -2.92989       -1.13663       -0.88744
C         -3.95616       -2.05898       -1.11573
C         -3.85128       -3.33776       -0.58319
C         -2.72239       -3.66667        0.16202
C         -1.73978       -2.70021        0.33739
H         -0.83614       -2.89693        0.91730
H         -2.59739       -4.65652        0.60326
H         -4.82581       -1.78382       -1.71198
C         -2.95707        0.24505       -1.41355
N         -1.85217        0.98084       -1.19437
C         -1.77616        2.22337       -1.67899
C         -2.81878        2.80476       -2.39293
C         -3.98279        2.06885       -2.59764
C         -4.05173        0.77218       -2.10520
H         -4.95462        0.17992       -2.24811
H         -2.71322        3.82207       -2.77347
H         -0.83292        2.74204       -1.48014
Ir        -0.26306        0.06665        0.07302
H         -1.07340       -0.36289        2.82187
B          0.84942       -0.72886       -1.38396
O          0.61200       -2.01334       -1.86782
C          1.33811       -2.18107       -3.08401
C          1.80584       -3.62134       -3.18571
H          2.36667       -3.91842       -2.29027
H          2.44379       -3.77120       -4.07039
H          0.93418       -4.28666       -3.27545
C          0.37925       -1.85508       -4.22612
H          0.83257       -2.02566       -5.21380
H         -0.50779       -2.49895       -4.13317
H          0.04536       -0.80863       -4.16646
C          2.48580       -1.12350       -2.93599
O          1.87179       -0.13387       -2.10839
C          3.69570       -1.66709       -2.18383
H          3.38421       -2.10022       -1.22442
H          4.24538       -2.41469       -2.77467
H          4.37636       -0.83335       -1.95882
C          2.92403       -0.47209       -4.23556
H          2.09512        0.06228       -4.71722
H          3.72014        0.25846       -4.02904
H          3.32223       -1.21987       -4.93883
B          1.11706        1.55135        0.10483
O          2.15437        1.74191        1.02212
C          3.05472        2.71652        0.49795
C          3.71885        3.45510        1.64505
H          2.97856        3.86606        2.34402
H          4.36177        2.76087        2.20625
H          4.34995        4.27726        1.27359
C          4.09418        1.96490       -0.32905
H          4.87223        2.63386       -0.72609
H          4.57167        1.21091        0.31317
H          3.60572        1.43067       -1.15665
C          2.10195        3.58489       -0.38639
O          1.12352        2.62839       -0.79089
C          2.74768        4.18287       -1.62304
H          3.11570        3.39472       -2.29189
H          2.00788        4.77902       -2.17829
H          3.58561        4.84446       -1.35377
C          1.38421        4.66793        0.41401
H          0.94208        4.24815        1.32943
H          2.05800        5.49006        0.69710
H          0.57140        5.08524       -0.19926
B          1.10384       -0.87872        1.22401
O          0.87445       -1.22443        2.56658
C          2.11752       -1.60860        3.15914
C          2.73158       -0.35128        3.76748
H          2.89617        0.40736        2.98835
H          2.02285        0.06564        4.49849
H          3.67855       -0.56169        4.28643
C          1.85774       -2.64842        4.23316
H          1.28506       -2.19516        5.05586
H          2.80278       -3.03212        4.64770
H          1.27586       -3.49376        3.84300
C          2.91493       -2.12588        1.91672
O          2.36888       -1.34004        0.86357
C          4.41408       -1.89233        1.98121
H          4.86151       -2.41098        2.84328
H          4.88842       -2.27722        1.06630
H          4.64238       -0.82142        2.05317
C          2.62525       -3.58976        1.59452
H          1.54196       -3.77607        1.55733
H          3.03696       -3.82232        0.60159
H          3.07627       -4.27517        2.32728
H         -4.64249       -4.07143       -0.75320
H         -4.82986        2.49746       -3.13779
C         -1.68324        0.41199        2.35415
C         -3.02610        0.22871        2.05101
C         -1.16534        1.70581        2.11710
C         -3.81261        1.23464        1.50757
O         -3.76681       -0.91200        2.14837
C         -1.97341        2.72906        1.59885
H         -0.13927        1.91966        2.41981
C         -3.31530        2.50723        1.27477
O         -5.05589        0.73401        1.23882
C         -5.09956       -0.51036        1.90753
H         -1.54027        3.71766        1.43654
H         -3.94573        3.28969        0.85061
H         -5.60034       -1.25653        1.27359
H         -5.63216       -0.39625        2.87414
