94
comp49_2_QRCF.log	Energy: -1553139.6907462
N         -2.17159       -0.94173       -0.83365
C         -3.22801       -0.12693       -1.01710
C         -4.42668       -0.60789       -1.55310
C         -4.51849       -1.94299       -1.92352
C         -3.40485       -2.76294       -1.76378
C         -2.24919       -2.21956       -1.21268
H         -1.33455       -2.80112       -1.07420
H         -3.42242       -3.81367       -2.05772
H         -5.28535        0.05251       -1.66617
C         -3.03255        1.28718       -0.64123
N         -1.86337        1.58811       -0.04980
C         -1.57961        2.85674        0.25641
C         -2.47411        3.89268        0.02591
C         -3.70458        3.59477       -0.55463
C         -3.98179        2.28026       -0.89964
H         -4.93149        2.02784       -1.36860
H         -2.20349        4.91340        0.30027
H         -0.58842        3.02752        0.68157
Ir        -0.45281       -0.05557        0.28346
H          0.33779       -1.32087        2.62143
B          0.55985        0.61007       -1.38677
O          1.87732        0.38379       -1.75183
C          2.10562        0.95111       -3.04399
C          3.51824        1.50414       -3.09231
H          3.70277        2.18919       -2.25491
H          3.70248        2.03845       -4.03705
H          4.24249        0.67924       -3.02022
C          1.93598       -0.16713       -4.06728
H          2.14574        0.17483       -5.09131
H          2.63630       -0.97985       -3.82591
H          0.91770       -0.58029       -4.02989
C          0.97446        2.02893       -3.13006
O         -0.04558        1.45305       -2.30785
C          1.37126        3.35211       -2.48233
H          1.75385        3.18076       -1.46570
H          2.12394        3.89405       -3.07370
H          0.47346        3.98313       -2.40232
C          0.41608        2.26302       -4.52088
H         -0.01690        1.34543       -4.93959
H         -0.37966        3.02096       -4.47403
H          1.19769        2.63019       -5.20375
B          1.00857        0.96333        1.25315
O          1.53140        0.64431        2.50054
C          2.68483        1.45454        2.73288
C          2.82832        1.70093        4.22280
H          1.90434        2.10625        4.65537
H          3.05011        0.75157        4.73177
H          3.65338        2.39961        4.43036
C          3.89157        0.68882        2.20045
H          4.83581        1.21226        2.41120
H          3.91699       -0.29981        2.67946
H          3.79813        0.52388        1.11803
C          2.36084        2.72552        1.87976
O          1.55615        2.17941        0.83138
C          3.56916        3.41066        1.26779
H          4.10571        2.73472        0.58988
H          3.24527        4.28690        0.68644
H          4.26527        3.75717        2.04707
C          1.50560        3.73938        2.63297
H          0.63003        3.25381        3.08880
H          2.07217        4.25112        3.42456
H          1.14724        4.50093        1.92397
B          0.94756       -1.53729        0.00963
O          0.78426       -2.55573       -0.92847
C          1.78661       -3.55626       -0.73032
C          1.14725       -4.69638        0.05491
H          0.80600       -4.35717        1.04290
H          0.26752       -5.06205       -0.49533
H          1.84016       -5.53892        0.19409
C          2.24746       -4.05806       -2.08726
H          1.41617       -4.57159       -2.59282
H          3.07855       -4.77252       -1.98545
H          2.57010       -3.22806       -2.72798
C          2.87732       -2.78232        0.09229
O          2.11215       -1.75645        0.72517
C          3.56941       -3.60692        1.16389
H          4.11177       -4.45686        0.72201
H          4.29824       -2.97644        1.69382
H          2.85580       -3.98974        1.90475
C          3.91644       -2.09818       -0.78975
H          3.42461       -1.44683       -1.52361
H          4.54912       -1.46047       -0.15568
H          4.56353       -2.82386       -1.30377
H         -5.45001       -2.33585       -2.33694
H         -4.43959        4.37964       -0.74430
C         -0.64889       -1.31503        2.15604
S         -1.48896       -2.86241        2.02185
C         -1.59062       -0.26560        2.29127
C         -3.03455       -2.11118        2.01605
C         -2.95518       -0.75425        2.18391
H         -1.35720        0.66920        2.80112
H         -3.93917       -2.69392        1.84588
C         -4.09706        0.09436        2.18925
N         -5.02062        0.79852        2.17037
