97
comp159_0_QRCR.log	Energy: -1627093.1964004
N          1.00620       -2.25856       -0.29933
C          2.18422       -2.47248        0.31287
C          2.73001       -3.75757        0.38747
C          2.03819       -4.82681       -0.16506
C          0.80429       -4.59096       -0.76571
C          0.32428       -3.28833       -0.80576
H         -0.64910       -3.04346       -1.23557
H          0.21383       -5.40047       -1.19748
H          3.68549       -3.92451        0.88326
C          2.82226       -1.29235        0.93017
N          2.12503       -0.14119        0.87259
C          2.60953        0.95548        1.46121
C          3.83313        0.96610        2.12261
C          4.58064       -0.20655        2.16223
C          4.06544       -1.34984        1.56562
H          4.63466       -2.27821        1.58437
H          4.18788        1.88595        2.59041
H          1.96220        1.83514        1.40517
Ir         0.23146       -0.20325       -0.29340
H          0.86998       -0.81818       -2.93141
B         -0.92933       -0.66275        1.30890
O         -2.06794       -0.02775        1.77353
C         -2.63033       -0.81659        2.82540
C         -3.27032        0.10323        3.84893
H         -2.56779        0.87517        4.18910
H         -3.62229       -0.46523        4.72366
H         -4.13827        0.60906        3.40108
C         -3.68019       -1.72594        2.19692
H         -4.20033       -2.33618        2.95002
H         -4.42183       -1.09923        1.68149
H         -3.22489       -2.38076        1.44107
C         -1.37845       -1.60018        3.33948
O         -0.59363       -1.71708        2.14905
C         -0.55230       -0.79190        4.33593
H         -0.35746        0.21850        3.94608
H         -1.04665       -0.70769        5.31492
H          0.41666       -1.29291        4.47673
C         -1.66702       -2.98619        3.88255
H         -2.12143       -3.62606        3.11525
H         -0.72798       -3.45929        4.20592
H         -2.34265       -2.93841        4.75045
B         -0.53062        1.64413        0.17514
O         -1.50358        2.36427       -0.49458
C         -1.85536        3.51663        0.27130
C         -2.15091        4.66285       -0.67956
H         -1.31757        4.83224       -1.37343
H         -3.04326        4.42132       -1.27562
H         -2.35070        5.59481       -0.12845
C         -3.10257        3.16122        1.07442
H         -3.46182        4.00825        1.67729
H         -3.90011        2.87472        0.37351
H         -2.90573        2.29792        1.72423
C         -0.58715        3.72119        1.17149
O         -0.05948        2.39439        1.25476
C         -0.87771        4.21858        2.57605
H         -1.52616        3.51893        3.11892
H          0.06437        4.31327        3.13656
H         -1.36173        5.20712        2.55461
C          0.47762        4.58965        0.50876
H          0.73025        4.20198       -0.48915
H          0.16123        5.63983        0.42663
H          1.39203        4.55792        1.12147
B         -1.47245       -0.49664       -1.35143
O         -2.46694       -1.42948       -1.04416
C         -3.37135       -1.53823       -2.14556
C         -2.94417       -2.74870       -2.97047
H         -1.93225       -2.60837       -3.37881
H         -2.93455       -3.63610       -2.31967
H         -3.63199       -2.94519       -3.80589
C         -4.77926       -1.73940       -1.61582
H         -4.84571       -2.70578       -1.09422
H         -5.51360       -1.74165       -2.43605
H         -5.05011       -0.95242       -0.90115
C         -3.13706       -0.18457       -2.89458
O         -1.77247        0.09153       -2.57787
C         -3.29586       -0.24858       -4.40216
H         -4.31725       -0.55157       -4.67968
H         -3.10672        0.74542       -4.83320
H         -2.58364       -0.95149       -4.85377
C         -3.97517        0.95299       -2.32020
H         -3.87509        0.99308       -1.22679
H         -3.59166        1.90377       -2.71588
H         -5.03775        0.85723       -2.58837
H          2.45364       -5.83556       -0.11551
H          5.55515       -0.23475        2.65422
C          1.46722       -0.08796       -2.38171
N          2.78063       -0.37415       -2.20473
C          0.97271        1.21032       -2.10671
C          3.54548        0.57039       -1.76314
N          1.83457        2.19797       -1.73386
H         -0.01728        1.51708       -2.44789
Cl         5.22711        0.19554       -1.47688
C          3.09780        1.91270       -1.53520
C          4.03822        3.00000       -1.12815
H          4.53488        2.75412       -0.17717
H          3.47814        3.93665       -1.02022
H          4.83566        3.13185       -1.87591
