102
comp4_2_QRCR_v2.log	Energy: -1699474.5912742
N         -0.77467       -2.29395        0.19605
C         -1.82302       -2.60259       -0.58568
C         -2.27399       -3.92067       -0.70016
C         -1.63721       -4.92163        0.02150
C         -0.56457       -4.58223        0.84181
C         -0.16543       -3.25267        0.89383
H          0.66946       -2.92651        1.51702
H         -0.03720       -5.33268        1.43254
H         -3.11406       -4.16486       -1.34973
C         -2.45300       -1.46993       -1.29784
N         -1.82830       -0.28208       -1.18640
C         -2.32459        0.79000       -1.81002
C         -3.49056        0.73277       -2.56645
C         -4.15797       -0.48281       -2.67764
C         -3.62864       -1.59916       -2.04163
H         -4.13565       -2.56098       -2.11242
H         -3.86044        1.63370       -3.05898
H         -1.73155        1.70336       -1.70350
Ir        -0.01768       -0.21205        0.10322
H         -0.81538       -0.55180        2.84553
B          1.35783       -0.72935       -1.25545
O          1.65306       -2.06656       -1.51292
C          2.42852       -2.13729       -2.70804
C          3.41952       -3.28030       -2.58716
H          4.02233       -3.18507       -1.67497
H          4.09408       -3.31556       -3.45654
H          2.87615       -4.23564       -2.53601
C          1.45659       -2.39899       -3.85571
H          1.97289       -2.54073       -4.81668
H          0.88457       -3.31077       -3.62855
H          0.74280       -1.56808       -3.95700
C          3.07225       -0.70963       -2.77229
O          2.09439        0.08605       -2.10054
C          4.37062       -0.61099       -1.97875
H          4.21927       -0.97191       -0.95305
H          5.18870       -1.16876       -2.45824
H          4.66329        0.44674       -1.91073
C          3.26967       -0.16182       -4.17448
H          2.31566       -0.07588       -4.71034
H          3.71423        0.84273       -4.11623
H          3.94976       -0.80196       -4.75761
B          0.62527        1.67878       -0.26456
O          1.46188        2.46866        0.52410
C          1.86952        3.60786       -0.23091
C          2.07087        4.78138        0.70981
H          1.17989        4.95609        1.32698
H          2.91451        4.57209        1.38435
H          2.30241        5.70177        0.15162
C          3.18167        3.23703       -0.91656
H          3.60751        4.07750       -1.48460
H          3.90408        2.93253       -0.14525
H          3.02852        2.37680       -1.58381
C          0.68497        3.77001       -1.24306
O          0.21614        2.42784       -1.37094
C          1.09139        4.27846       -2.61503
H          1.79730        3.59036       -3.09691
H          0.20253        4.35534       -3.25914
H          1.55184        5.27651       -2.54892
C         -0.46445        4.60472       -0.68571
H         -0.80284        4.21074        0.28365
H         -0.19210        5.66541       -0.57981
H         -1.31361        4.54117       -1.38440
B          1.58587       -0.26638        1.33144
O          1.45942       -0.34764        2.72752
C          2.73075       -0.06413        3.31766
C          2.77328        1.43653        3.59049
H          2.64779        1.99861        2.65343
H          1.93407        1.69535        4.25341
H          3.70786        1.74257        4.08360
C          2.86405       -0.84396        4.61248
H          2.12567       -0.47801        5.34119
H          3.86630       -0.71522        5.04964
H          2.68254       -1.91570        4.45818
C          3.71498       -0.49722        2.18052
O          2.94015       -0.26632        1.00903
C          4.99044        0.32263        2.09685
H          5.57497        0.24685        3.02684
H          5.61412       -0.04660        1.26927
H          4.76592        1.37902        1.90259
C          4.04986       -1.98602        2.22130
H          3.13500       -2.59201        2.29607
H          4.55634       -2.26076        1.28450
H          4.71114       -2.24180        3.06238
H         -1.97652       -5.95685       -0.05584
H         -5.08092       -0.56567       -3.25584
C         -1.53901        0.03912        2.28381
C         -2.81602       -0.44507        1.98186
C         -1.23307        1.38750        1.97347
Cl        -3.26667       -2.06486        2.38949
C         -3.72722        0.39217        1.34379
N         -2.10180        2.24066        1.41434
H         -0.26961        1.79408        2.28721
C         -3.27339        1.72567        1.10343
C         -5.05978        0.30344        0.83380
N         -4.30227        2.38751        0.48667
C         -5.37539        1.53700        0.31423
H         -5.70686       -0.56993        0.84414
H         -4.24962        3.35362        0.19463
C         -6.61506        1.99539       -0.36223
H         -7.35762        1.18782       -0.38252
H         -6.41493        2.30058       -1.40325
H         -7.06522        2.85930        0.15377
