93
comp41_3_QRCF_v2.log	Energy: -1292761.4419373
N          2.08505       -1.34897       -0.63084
C          3.33669       -0.95170       -0.34504
C          4.40139       -1.85936       -0.36400
C          4.15645       -3.18994       -0.67509
C          2.84844       -3.58929       -0.94053
C          1.84190       -2.63397       -0.89840
H          0.79392       -2.89226       -1.06088
H          2.60276       -4.62748       -1.16893
H          5.41207       -1.53203       -0.12177
C          3.49283        0.46509        0.04332
N          2.35280        1.16738        0.18093
C          2.40346        2.43861        0.59142
C          3.60416        3.07886        0.87770
C          4.79422        2.37400        0.71533
C          4.73792        1.05160        0.29480
H          5.65605        0.48044        0.16002
H          3.59738        4.11574        1.21774
H          1.43128        2.93001        0.69652
Ir         0.47413        0.14267       -0.44750
H         -0.84854        1.48259       -2.56280
B          0.04419       -0.68779        1.36344
O         -0.78687       -0.19819        2.36321
C         -0.99301       -1.22836        3.33280
C         -1.15870       -0.59545        4.70239
H         -0.32683        0.08164        4.93597
H         -1.22143       -1.36483        5.48752
H         -2.08894       -0.00870        4.72785
C         -2.26092       -1.97668        2.93385
H         -2.52257       -2.76175        3.65888
H         -3.09113       -1.25712        2.88550
H         -2.14534       -2.41631        1.93344
C          0.29883       -2.09391        3.15834
O          0.61779       -1.88422        1.78427
C          1.47567       -1.56984        3.97677
H          1.60714       -0.48921        3.81908
H          1.35243       -1.75814        5.05362
H          2.39149       -2.07548        3.63665
C          0.10905       -3.58027        3.39955
H         -0.62686       -4.00129        2.70273
H          1.06372       -4.10419        3.24208
H         -0.22365       -3.77720        4.43046
B         -0.93378        1.50257        0.12349
O         -2.30782        1.46108       -0.09201
C         -2.94045        2.49780        0.65644
C         -4.14576        3.00354       -0.11682
H         -3.87709        3.28904       -1.14218
H         -4.90317        2.20844       -0.17870
H         -4.60318        3.87031        0.38492
C         -3.38203        1.89611        1.98666
H         -3.92308        2.62344        2.61000
H         -4.05359        1.04971        1.77972
H         -2.51505        1.50299        2.53468
C         -1.78007        3.53714        0.81715
O         -0.62240        2.70380        0.77349
C         -1.78776        4.30482        2.12661
H         -1.69065        3.62483        2.98228
H         -0.93962        5.00562        2.15184
H         -2.71433        4.88864        2.23924
C         -1.68946        4.50450       -0.35988
H         -1.70340        3.96039       -1.31544
H         -2.51218        5.23441       -0.36141
H         -0.73978        5.05639       -0.29376
B         -1.12376       -0.92352       -1.08647
O         -1.73277       -2.00746       -0.45143
C         -2.63016       -2.65032       -1.35504
C         -1.88655       -3.83711       -1.96194
H         -1.02193       -3.49688       -2.55122
H         -1.51651       -4.47436       -1.14502
H         -2.53194       -4.44568       -2.61234
C         -3.84595       -3.13699       -0.58689
H         -3.54883       -3.92854        0.11722
H         -4.60461       -3.55313       -1.26766
H         -4.29899       -2.32323       -0.00681
C         -2.91948       -1.51901       -2.39810
O         -1.71790       -0.75020       -2.34030
C         -3.13245       -2.00120       -3.82186
H         -4.00637       -2.66766       -3.88774
H         -3.31356       -1.13707       -4.47783
H         -2.25265       -2.53438       -4.20515
C         -4.06793       -0.60981       -1.97336
H         -3.90769       -0.23897       -0.95234
H         -4.08594        0.26635       -2.63777
H         -5.04124       -1.11818       -2.03971
H          4.97675       -3.91071       -0.69448
H          5.75825        2.84645        0.91695
C          0.23339        1.53443       -2.46814
C          1.10407        0.47954       -2.73473
C          1.06422        2.71362       -2.44212
O          2.37869        0.95863       -2.88751
H          0.91476       -0.50301       -3.15833
C          2.33045        2.29270       -2.68723
H          0.74672        3.73357       -2.24087
H          3.28515        2.81351       -2.71848
