96
comp173_1_QRCR_v2.log	Energy: -1644541.3487921
N         -2.19659        0.41862        1.02794
C         -3.16989       -0.50864        1.09065
C         -4.37304       -0.24599        1.75333
C         -4.55900        0.98944        2.36069
C         -3.53242        1.92871        2.30560
C         -2.36279        1.60040        1.62953
H         -1.50913        2.28088        1.56692
H         -3.62733        2.90809        2.77692
H         -5.16169       -0.99716        1.78823
C         -2.86934       -1.80539        0.44645
N         -1.70426       -1.87600       -0.22045
C         -1.33769       -3.02451       -0.78958
C         -2.12376       -4.16802       -0.74004
C         -3.33940       -4.10853       -0.06410
C         -3.71414       -2.91574        0.53985
H         -4.65195       -2.85362        1.09121
H         -1.78404       -5.08387       -1.22573
H         -0.37305       -3.01388       -1.29943
Ir        -0.40454       -0.08112       -0.18197
H         -0.82293       -0.25274       -3.00626
B          0.66570       -0.93095        1.29024
O          1.69793       -0.38313        2.03346
C          1.96916       -1.23742        3.14301
C          3.45445       -1.19164        3.45184
H          4.05176       -1.40332        2.55595
H          3.71832       -1.91703        4.23694
H          3.72767       -0.18805        3.81058
C          1.16431       -0.70597        4.32540
H          1.37239       -1.26015        5.25266
H          1.42524        0.35079        4.48069
H          0.08576       -0.75606        4.11567
C          1.44538       -2.61787        2.62457
O          0.39414       -2.22042        1.73998
C          2.48481       -3.35744        1.78904
H          2.88708       -2.69140        1.01276
H          3.30762       -3.74962        2.40484
H          1.99302       -4.20432        1.28741
C          0.87331       -3.52949        3.69384
H          0.02116       -3.06327        4.20521
H          0.51999       -4.46278        3.23081
H          1.63767       -3.78807        4.44280
B          1.19526       -0.61638       -1.31239
O          1.22649       -0.50338       -2.71023
C          2.55850       -0.73912       -3.17200
C          2.50053       -1.40372       -4.53573
H          1.87473       -2.30551       -4.52146
H          2.06843       -0.70494       -5.26713
H          3.50822       -1.67894       -4.88343
C          3.25153        0.61508       -3.27422
H          4.28016        0.52467       -3.65335
H          2.68069        1.24902       -3.96866
H          3.25300        1.11777       -2.29784
C          3.13781       -1.63446       -2.02633
O          2.38991       -1.19998       -0.89343
C          4.61644       -1.43602       -1.74568
H          4.82412       -0.40290       -1.44021
H          4.92950       -2.09956       -0.92573
H          5.22571       -1.67540       -2.63084
C          2.83789       -3.11747       -2.23054
H          1.77406       -3.27206       -2.46478
H          3.43888       -3.55499       -3.04124
H          3.06211       -3.65797       -1.29990
B          0.77516        1.53620        0.20338
O          0.63382        2.33111        1.33849
C          1.60966        3.37331        1.34162
C          0.90621        4.67283        0.96982
H          0.47983        4.61609       -0.04032
H          0.07808        4.84417        1.67379
H          1.58600        5.53603        1.02230
C          2.18956        3.47729        2.74248
H          1.40512        3.80601        3.44053
H          3.01144        4.20861        2.78263
H          2.55996        2.50260        3.08418
C          2.63175        2.89134        0.24774
O          1.83135        2.02877       -0.56145
C          3.20099        3.99799       -0.62277
H          3.76720        4.72423       -0.01966
H          3.88777        3.56413       -1.36444
H          2.41112        4.53133       -1.16709
C          3.76143        2.03865        0.81911
H          3.35203        1.19922        1.39767
H          4.33865        1.61623       -0.01634
H          4.44638        2.62693        1.44740
H         -5.49547        1.21262        2.87677
H         -3.98775       -4.98503       -0.00049
C         -1.60052        0.31613       -2.49355
C         -1.33568        1.62010       -2.04531
C         -2.90831       -0.17573       -2.40074
C         -2.39733        2.38831       -1.53150
H         -0.35255        2.06318       -2.20661
F         -3.15267       -1.41695       -2.82478
C         -3.94401        0.57279       -1.87721
C         -3.68220        1.87806       -1.44018
Cl        -2.09424        4.00637       -0.98854
H         -4.94596        0.14486       -1.81935
H         -4.48185        2.49513       -1.02840
