96
comp43_0_QRCR.log	Energy: -1519987.4535958
N         -1.67509       -1.74140        0.66409
C         -2.87779       -1.76316        0.06383
C         -3.69996       -2.89308        0.14272
C         -3.27088       -3.99971        0.86143
C         -2.02641       -3.95518        1.48693
C         -1.26152       -2.80443        1.35700
H         -0.27923       -2.71111        1.82409
H         -1.64695       -4.79836        2.06599
H         -4.66657       -2.90999       -0.35969
C         -3.24806       -0.55073       -0.69537
N         -2.31398        0.41575       -0.75588
C         -2.55328        1.52742       -1.45802
C         -3.75293        1.73725       -2.12855
C         -4.73856        0.75507       -2.06038
C         -4.48147       -0.40399       -1.33992
H         -5.23700       -1.18638       -1.27593
H         -3.90406        2.65839       -2.69365
H         -1.72747        2.24391       -1.48804
Ir        -0.41173        0.02990        0.33565
H         -0.82655       -0.11799        3.11589
B          0.44268       -0.95464       -1.23414
O          0.26781       -2.32420       -1.41792
C          0.72603       -2.67499       -2.72226
C          1.33424       -4.06463       -2.67537
H          2.10930       -4.13015       -1.90104
H          1.77707       -4.33861       -3.64541
H          0.55287       -4.80104       -2.43522
C         -0.49266       -2.66147       -3.64157
H         -0.25022       -2.99244       -4.66229
H         -1.25211       -3.34004       -3.22565
H         -0.93036       -1.65340       -3.69117
C          1.73669       -1.52210       -3.03870
O          1.19192       -0.43831       -2.28195
C          3.13555       -1.80126       -2.49921
H          3.08811       -2.05534       -1.43190
H          3.63783       -2.60607       -3.05612
H          3.73926       -0.88695       -2.58996
C          1.80548       -1.11547       -4.49964
H          0.83357       -0.75843       -4.86396
H          2.53111       -0.29732       -4.61958
H          2.13442       -1.95660       -5.12941
B          0.73933        1.58161       -0.31837
O          1.97246        1.99880        0.18164
C          2.55039        2.93192       -0.73006
C          3.40720        3.91899        0.04153
H          2.84733        4.38699        0.86179
H          4.26856        3.39336        0.47965
H          3.79314        4.70962       -0.62033
C          3.40775        2.13276       -1.70654
H          3.94493        2.78150       -2.41433
H          4.14461        1.55554       -1.12921
H          2.78446        1.41445       -2.25726
C          1.28027        3.54656       -1.40702
O          0.34702        2.46905       -1.32495
C          1.45835        3.93227       -2.86423
H          1.71144        3.05539       -3.47329
H          0.52062        4.35609       -3.25416
H          2.24892        4.68956       -2.98115
C          0.70249        4.71680       -0.61675
H          0.60051        4.45850        0.44726
H          1.32619        5.61917       -0.69773
H         -0.29752        4.95373       -1.01012
B          1.29522       -0.51731        1.27325
O          1.43883       -0.51108        2.66738
C          2.82351       -0.67413        2.98366
C          3.42244        0.72432        3.10151
H          3.30689        1.26949        2.15338
H          2.87103        1.27595        3.87747
H          4.48487        0.69810        3.38572
C          2.95067       -1.41900        4.29951
H          2.54370       -0.80139        5.11375
H          4.00511       -1.63548        4.53059
H          2.39320       -2.36473        4.28288
C          3.35094       -1.45069        1.73053
O          2.47035       -1.00188        0.70639
C          4.77880       -1.12012        1.33228
H          5.48505       -1.36238        2.14147
H          5.06077       -1.70646        0.44517
H          4.87924       -0.05733        1.07815
C          3.17794       -2.96251        1.85158
H          2.15240       -3.21786        2.15611
H          3.35611       -3.41873        0.86686
H          3.87926       -3.40613        2.57373
H         -3.90092       -4.88899        0.93161
H         -5.69672        0.88570       -2.56832
C         -1.35319        0.58680        2.47295
S         -3.09858        0.65026        2.49226
C         -0.81903        1.78137        1.97906
C         -3.11602        2.23394        1.76528
C         -1.85025        2.70144        1.57061
H          0.21327        2.07680        2.16666
C         -4.40821        2.87425        1.38858
H         -1.64400        3.67501        1.12380
H         -4.91905        2.31048        0.59077
H         -4.22858        3.89343        1.01868
H         -5.09890        2.93708        2.24421
