97
Int1_comp40_4_Sub24.log	Energy: -1568552.4232536
N          1.33895       -1.90646       -0.67187
C          2.44893       -2.12087        0.06022
C          3.05555       -3.38109        0.09417
C          2.51189       -4.41926       -0.65086
C          1.36893       -4.17621       -1.40946
C          0.80909       -2.90414       -1.38750
H         -0.10555       -2.65027       -1.93350
H          0.90425       -4.96168       -2.00763
H          3.93785       -3.55285        0.71037
C          2.95431       -0.96688        0.83297
N          2.16822        0.12237        0.84208
C          2.54807        1.21192        1.51237
C          3.74625        1.27453        2.21285
C          4.57351        0.15389        2.21439
C          4.17373       -0.98042        1.51919
H          4.81215       -1.86341        1.49820
H          4.02091        2.18876        2.74056
H          1.85883        2.05806        1.46448
Ir         0.30683        0.04337       -0.33405
H          0.10125        2.24993       -2.04337
B         -0.67888       -0.97032        1.13261
O         -1.84385       -1.71084        0.98049
C         -1.95934       -2.61591        2.07660
C         -3.42694       -2.80142        2.41592
H         -3.92170       -1.83510        2.57579
H         -3.55110       -3.41932        3.31871
H         -3.93745       -3.30783        1.58315
C         -1.34916       -3.94173        1.62874
H         -1.46794       -4.73141        2.38543
H         -1.85083       -4.26276        0.70423
H         -0.27817       -3.82438        1.40618
C         -1.10939       -1.90196        3.17935
O         -0.14626       -1.19072        2.39744
C         -1.91789       -0.87018        3.95722
H         -2.43377       -0.19246        3.26263
H         -2.65156       -1.34040        4.62852
H         -1.22572       -0.26884        4.56454
C         -0.38140       -2.83366        4.13058
H          0.32352       -3.48278        3.59476
H          0.19260       -2.24085        4.85802
H         -1.09075       -3.46469        4.68814
B         -0.71935        1.59625        0.49221
O         -0.40639        2.95280        0.33028
C         -1.48339        3.73657        0.84662
C         -0.93461        5.04601        1.38254
H         -0.13033        4.87891        2.11100
H         -0.52215        5.63947        0.55305
H         -1.72735        5.63962        1.86358
C         -2.44354        3.99628       -0.31091
H         -3.29141        4.63040       -0.01203
H         -1.89390        4.51136       -1.11292
H         -2.81692        3.04511       -0.71741
C         -2.08677        2.77950        1.92489
O         -1.79179        1.49639        1.37992
C         -3.58808        2.89840        2.11745
H         -4.12389        2.66406        1.18881
H         -3.91917        2.18555        2.88737
H         -3.86928        3.91098        2.44609
C         -1.37320        2.88982        3.26952
H         -0.28406        2.80399        3.14202
H         -1.59639        3.83897        3.77881
H         -1.69898        2.06371        3.91582
B         -1.39400       -0.17828       -1.41563
O         -1.67973       -1.31453       -2.18533
C         -2.85019       -1.08058       -2.96908
C         -2.38755       -0.64987       -4.35764
H         -1.82279        0.29264       -4.30452
H         -1.72091       -1.42437       -4.76539
H         -3.22858       -0.51682       -5.05408
C         -3.65456       -2.36492       -3.05326
H         -3.09435       -3.11922       -3.62642
H         -4.61672       -2.19793       -3.56173
H         -3.84807       -2.77272       -2.05291
C         -3.54395        0.07643       -2.17736
O         -2.42371        0.74436       -1.59821
C         -4.32543        1.05721       -3.03188
H         -5.14303        0.55076       -3.56790
H         -4.76963        1.83204       -2.38960
H         -3.67923        1.55818       -3.76446
C         -4.40417       -0.43180       -1.02352
H         -3.83271       -1.13287       -0.39835
H         -4.67488        0.42501       -0.38954
H         -5.32850       -0.91392       -1.37540
H          2.97196       -5.40968       -0.63217
H          5.52509        0.16280        2.75069
C          1.08600        1.82338       -1.86266
C          1.48382        0.58559       -2.36947
C          2.17854        2.59133       -1.34268
S          3.22272        0.39819       -2.27877
H          0.94466       -0.03184       -3.08737
C          3.37618        1.95346       -1.47943
H          2.06401        3.55320       -0.84681
O          4.54358        2.39720       -0.99612
C          5.68712        1.61885       -1.22657
H          5.60087        0.63012       -0.74143
H          5.86556        1.47351       -2.30696
H          6.53665        2.16018       -0.79171
