100
Int1_comp63_0_Sub9.log	Energy: -1517704.9091749
N         -0.68742        2.05385       -1.44436
C         -1.65488        2.82473       -0.91710
C         -1.91285        4.10055       -1.42962
C         -1.16084        4.57101       -2.49835
C         -0.17159        3.75365       -3.04003
C          0.02898        2.49867       -2.47869
H          0.78768        1.80883       -2.85786
H          0.44054        4.07872       -3.88267
H         -2.69358        4.72458       -0.99579
C         -2.40140        2.24327        0.22025
N         -2.01566        1.01527        0.61479
C         -2.62496        0.42702        1.64695
C         -3.67231        1.03405        2.33178
C         -4.09237        2.29737        1.92951
C         -3.44584        2.91174        0.86378
H         -3.75654        3.90320        0.53557
H         -4.14902        0.51138        3.16225
H         -2.23112       -0.55442        1.92478
Ir        -0.20196        0.16677       -0.38070
H         -0.21979       -1.19910       -2.90257
B          0.93492        1.16946        0.93126
O          1.23539        2.51745        0.73862
C          1.70097        3.05765        1.97381
C          2.74014        4.12576        1.68804
H          3.54083        3.73642        1.04622
H          3.18567        4.50718        2.61977
H          2.26721        4.96951        1.16379
C          0.49122        3.66883        2.67675
H          0.76426        4.17787        3.61289
H          0.02921        4.40448        2.00166
H         -0.26027        2.89690        2.90033
C          2.24522        1.78439        2.70537
O          1.40921        0.75836        2.16801
C          3.68331        1.45385        2.32061
H          3.78424        1.41001        1.22822
H          4.39794        2.18074        2.73413
H          3.93416        0.45720        2.71128
C          2.09284        1.80122        4.21558
H          1.03859        1.87696        4.51160
H          2.49396        0.86713        4.63615
H          2.64895        2.64088        4.66050
B          0.19501       -1.44655        0.77717
O          1.15368       -2.45250        0.58298
C          1.33703       -3.16019        1.80911
C          1.72097       -4.59809        1.50834
H          0.99192       -5.08897        0.85025
H          2.69944       -4.61907        1.00567
H          1.80408       -5.18551        2.43567
C          2.46337       -2.46025        2.56350
H          2.71581       -2.97465        3.50269
H          3.35489       -2.44350        1.91970
H          2.18830       -1.41676        2.77091
C         -0.05756       -2.97928        2.49749
O         -0.49950       -1.73707        1.95601
C         -0.00856       -2.86461        4.01080
H          0.57551       -1.98755        4.31685
H         -1.02848       -2.74780        4.40700
H          0.43229       -3.76555        4.46487
C         -1.06569       -4.04605        2.08162
H         -1.07700       -4.16231        0.98903
H         -0.84951       -5.02316        2.53847
H         -2.07063       -3.72782        2.39583
B          1.60049       -0.25403       -1.18935
O          1.82172       -0.63517       -2.52828
C          3.19407       -1.00755       -2.68059
C          3.28643       -2.50952       -2.42712
H          2.94941       -2.74424       -1.40654
H          2.62447       -3.02896       -3.13575
H          4.30800       -2.89127       -2.57010
C          3.64857       -0.67666       -4.08951
H          3.10364       -1.30229       -4.81210
H          4.72476       -0.87278       -4.21359
H          3.45285        0.37452       -4.33875
C          3.87814       -0.17401       -1.54916
O          2.84483       -0.09719       -0.57574
C          5.09993       -0.82572       -0.92549
H          5.88855       -0.99526       -1.67498
H          5.50835       -0.17033       -0.14218
H          4.84106       -1.78408       -0.45769
C          4.20917        1.25184       -1.98384
H          3.33605        1.73461       -2.44636
H          4.47793        1.83961       -1.09424
H          5.05076        1.28721       -2.69139
H         -1.34814        5.56694       -2.90565
H         -4.91448        2.80415        2.43945
C         -1.09262       -1.43705       -2.29685
C         -2.22144       -0.68626       -1.97925
N         -1.30045       -2.71954       -1.84750
C         -3.11321       -1.55984       -1.29189
H         -2.43962        0.32345       -2.31504
C         -2.50498       -2.79760       -1.22494
C         -0.32223       -3.77661       -1.94040
C         -4.46390       -1.22847       -0.78046
H         -2.84392       -3.71949       -0.75746
H          0.06784       -3.83555       -2.96606
H         -0.80084       -4.73303       -1.69352
H          0.50449       -3.58380       -1.24134
F         -4.66029       -1.68078        0.47060
F         -5.44962       -1.75968       -1.52172
F         -4.67104        0.09644       -0.76206
