104
Int1_comp75_7_Sub23.log	Energy: -1449815.0372335
N         -1.81306       -1.20660       -1.86610
C         -2.23095       -2.45195       -1.58099
C         -3.35581       -2.99324       -2.21273
C         -4.04643       -2.22848       -3.14400
C         -3.59557       -0.94184       -3.43031
C         -2.46973       -0.47119       -2.76522
H         -2.06952        0.53303       -2.93605
H         -4.10676       -0.30574       -4.15460
H         -3.69430       -4.00188       -1.97712
C         -1.44328       -3.18275       -0.56386
N         -0.39865       -2.51900       -0.03053
C          0.35296       -3.09937        0.91086
C          0.09661       -4.38808        1.36638
C         -0.97621       -5.09179        0.82495
C         -1.75523       -4.48145       -0.15002
H         -2.60422       -5.01115       -0.58119
H          0.73123       -4.82324        2.14011
H          1.15246       -2.47451        1.32071
Ir        -0.19955       -0.37373       -0.57282
H          0.71378        0.62275       -3.00743
B         -1.58222       -0.06284        0.90781
O         -2.94448       -0.22040        0.66020
C         -3.62224       -0.36294        1.90793
C         -4.99397        0.27715        1.80294
H         -4.92012        1.31634        1.45790
H         -5.51644        0.26115        2.77185
H         -5.60463       -0.27719        1.07475
C         -3.75625       -1.86100        2.17063
H         -4.33339       -2.07555        3.08213
H         -4.27216       -2.32176        1.31494
H         -2.76577       -2.33143        2.26166
C         -2.63670        0.33978        2.90213
O         -1.37601        0.13405        2.26262
C         -2.86480        1.84424        2.99590
H         -2.85146        2.29374        1.99468
H         -3.81053        2.08724        3.50223
H         -2.03974        2.29425        3.56622
C         -2.58654       -0.27199        4.29070
H         -2.26673       -1.32139        4.25588
H         -1.86193        0.27907        4.90820
H         -3.56865       -0.21472        4.78514
B          1.13006        0.29691        0.80733
O          1.67047        1.56933        0.92601
C          2.22359        1.72873        2.22895
C          3.45600        2.61153        2.13364
H          4.17087        2.22014        1.39864
H          3.15591        3.61874        1.80810
H          3.95660        2.70368        3.10987
C          1.15238        2.40418        3.08054
H          1.50337        2.61442        4.10189
H          0.87400        3.35367        2.60102
H          0.25081        1.77806        3.11886
C          2.51085        0.24398        2.66824
O          1.61725       -0.50280        1.84188
C          2.18005       -0.06037        4.12053
H          1.11214        0.09426        4.31973
H          2.41620       -1.11334        4.33706
H          2.76998        0.56792        4.80547
C          3.92786       -0.21102        2.34711
H          4.18645        0.02304        1.30734
H          4.66895        0.25859        3.01103
H          3.99046       -1.30234        2.47141
B         -0.58937        1.60473       -0.83739
O         -0.53217        2.26462       -2.07617
C         -0.72203        3.66466       -1.85459
C          0.65936        4.27759       -1.64461
H          1.15662        3.81556       -0.77853
H          1.27158        4.07789       -2.53649
H          0.61078        5.36671       -1.49911
C         -1.39689        4.27590       -3.06779
H         -0.72522        4.21067       -3.93663
H         -1.62922        5.33828       -2.89639
H         -2.32769        3.75047       -3.31927
C         -1.57756        3.66515       -0.54733
O         -1.11600        2.48681        0.10469
C         -1.35040        4.85674        0.36551
H         -1.60855        5.80059       -0.13937
H         -1.98388        4.76271        1.25987
H         -0.30606        4.90511        0.69884
C         -3.06873        3.48693       -0.82284
H         -3.24598        2.62143       -1.47774
H         -3.58663        3.29301        0.12728
H         -3.51530        4.38104       -1.28233
H         -4.92985       -2.63463       -3.64147
H         -1.21004       -6.10419        1.16142
C          1.34315       -0.00664       -2.38334
C          1.22854       -1.38039       -2.18802
C          2.69238        0.32732       -1.95255
O          2.38576       -1.91403       -1.67647
H          0.56740       -2.10537       -2.65736
C          3.45484        1.50210       -1.90587
C          3.25200       -0.87632       -1.52737
C          4.75779        1.39601       -1.43922
H          3.03275        2.45876       -2.21128
C          4.55091       -1.00751       -1.01768
C          5.30585        0.17519       -1.00798
H          5.38694        2.28850       -1.39541
N          4.98822       -2.22038       -0.55033
H          6.33440        0.15182       -0.64527
H          4.41835       -3.01477       -0.80201
C          6.34661       -2.45345       -0.16840
H          6.45792       -3.49491        0.16215
H          6.63790       -1.80813        0.67837
H          7.07132       -2.27416       -0.98766
