106
Int1_comp49_0_Sub4.log	Energy: -1653184.8614569
N          0.72562       -2.09052       -0.99420
C          1.65777       -2.74693       -0.28380
C          2.02625       -4.05403       -0.62197
C          1.42121       -4.67413       -1.70577
C          0.46061       -3.97451       -2.43345
C          0.14399       -2.68196       -2.03943
H         -0.59358       -2.07862       -2.57427
H         -0.03824       -4.41754       -3.29661
H          2.78588       -4.58104       -0.04561
C          2.23418       -2.02069        0.86673
N          1.84995       -0.73925        1.01300
C          2.30207       -0.02457        2.04733
C          3.16167       -0.56125        3.00034
C          3.56546       -1.88722        2.86703
C          3.09780       -2.62485        1.78687
H          3.39277       -3.66692        1.66886
H          3.49756        0.05615        3.83500
H          1.91364        0.99572        2.11463
Ir         0.14987       -0.08724       -0.30297
H          0.74996        0.25838       -3.00379
B         -1.11902       -1.06762        0.99058
O         -1.45456       -2.40183        0.80088
C         -2.06445       -2.89278        1.99548
C         -3.13438       -3.90210        1.62389
H         -3.84669       -3.47540        0.90634
H         -3.68675       -4.24184        2.51347
H         -2.66628       -4.78023        1.15476
C         -0.96265       -3.56261        2.81259
H         -1.35102       -4.04014        3.72420
H         -0.48583       -4.33492        2.19071
H         -0.19041       -2.83270        3.09835
C         -2.59669       -1.57875        2.65710
O         -1.65290       -0.61098        2.18245
C         -3.96847       -1.16952        2.13252
H         -3.95918       -1.12575        1.03473
H         -4.75975       -1.85256        2.47485
H         -4.19929       -0.15913        2.49756
C         -2.58363       -1.57574        4.17431
H         -1.56826       -1.71085        4.56903
H         -2.96382       -0.61193        4.54363
H         -3.22967       -2.37187        4.57544
B         -0.54565        1.52952        0.76787
O         -1.70373        2.24405        0.57162
C         -1.87388        3.19848        1.61762
C         -2.43254        4.47577        1.01446
H         -1.82339        4.81036        0.16499
H         -3.44943        4.28491        0.64082
H         -2.49017        5.28063        1.76332
C         -2.86611        2.59794        2.60746
H         -3.10055        3.28882        3.43071
H         -3.79586        2.36959        2.06640
H         -2.47799        1.65403        3.01354
C         -0.42063        3.33353        2.20700
O          0.19475        2.10682        1.80003
C         -0.35752        3.42584        3.72224
H         -0.78910        2.53409        4.19394
H          0.69206        3.50726        4.04334
H         -0.89286        4.31528        4.08776
C          0.38001        4.47317        1.58584
H          0.34393        4.43621        0.48891
H          0.01050        5.45629        1.91194
H          1.43006        4.38138        1.90357
B         -1.55198        0.12716       -1.37953
O         -1.56326        0.36235       -2.75684
C         -2.91172        0.66004       -3.14711
C         -3.08748        2.17052       -3.05003
H         -2.92458        2.51581       -2.01892
H         -2.33063        2.66138       -3.67726
H         -4.08512        2.48726       -3.38827
C         -3.13057        0.18604       -4.57099
H         -2.50226        0.77477       -5.25538
H         -4.18059        0.32090       -4.87282
H         -2.86461       -0.87266       -4.69151
C         -3.73344       -0.10812       -2.05925
O         -2.85235       -0.06982       -0.93947
C         -5.04670        0.54891       -1.67349
H         -5.71626        0.64039       -2.54261
H         -5.55616       -0.06061       -0.91232
H         -4.87518        1.54537       -1.24777
C         -3.96303       -1.57599       -2.40859
H         -3.02347       -2.06400       -2.70577
H         -4.33759       -2.09769       -1.51591
H         -4.69613       -1.69974       -3.21929
H          1.69990       -5.69307       -1.98281
H          4.23469       -2.34614        3.59795
C          1.39485        0.47512       -2.15089
S          3.03840       -0.12491       -2.15009
C          1.30750        1.66200       -1.37898
C          3.57765        1.11735       -1.03949
C          2.57255        1.97640       -0.73069
C          0.41067        2.73239       -1.70207
C          5.02323        1.14294       -0.59191
H          2.67658        2.83148       -0.06519
N         -0.22898        3.66504       -1.96031
C          5.45580       -0.24531       -0.10487
H          6.51291       -0.22667        0.20345
H          4.85251       -0.56984        0.75397
H          5.34888       -1.00143       -0.89787
C          5.89622        1.55729       -1.78685
H          5.60893        2.55399       -2.15357
H          6.95819        1.58563       -1.49531
H          5.78838        0.84821       -2.62171
C          5.20186        2.15425        0.54091
H          6.25119        2.16383        0.87301
H          4.94583        3.17363        0.21597
H          4.57080        1.89885        1.40537
