101
Int1_comp163_7_Sub7.log	Energy: -1705426.2993672
N          1.69444       -1.51700        0.69063
C          2.78920       -1.11237        1.35739
C          3.75322       -2.02866        1.78871
C          3.56931       -3.38015        1.52731
C          2.41666       -3.78651        0.85888
C          1.50255       -2.81656        0.46413
H          0.57387       -3.07639       -0.04568
H          2.21829       -4.83901        0.65045
H          4.63448       -1.69033        2.33271
C          2.87156        0.33644        1.64151
N          1.77992        1.05775        1.32423
C          1.74019        2.36271        1.60853
C          2.81353        3.02137        2.20023
C          3.96217        2.29589        2.50323
C          3.99012        0.93456        2.22681
H          4.88196        0.34836        2.44527
H          2.74201        4.08974        2.41006
H          0.80577        2.86801        1.34505
Ir         0.22692        0.03592        0.09251
H          0.81672        0.68878       -2.54756
B         -1.05395       -0.61691        1.47027
O         -0.89021       -1.86340        2.07307
C         -1.72960       -1.92224        3.22468
C         -2.22137       -3.34668        3.40449
H         -2.69902       -3.71844        2.48890
H         -2.94164       -3.41730        4.23405
H         -1.36973       -4.00432        3.63434
C         -0.88021       -1.50127        4.42095
H         -1.42771       -1.58451        5.37139
H          0.00455       -2.15308        4.46943
H         -0.53072       -0.46485        4.30403
C         -2.84356       -0.87727        2.87497
O         -2.13659        0.03880        2.03555
C         -3.97671       -1.48104        2.05228
H         -3.57440       -1.99718        1.17067
H         -4.58996       -2.17423        2.64684
H         -4.62432       -0.67007        1.68962
C         -3.40283       -0.11790        4.06460
H         -2.62056        0.45323        4.58081
H         -4.16653        0.59449        3.71900
H         -3.87736       -0.80310        4.78401
B         -1.09467        1.55648       -0.19421
O         -2.08759        1.67687       -1.16768
C         -3.03023        2.66519       -0.75389
C         -3.59684        3.35902       -1.97985
H         -2.80081        3.74983       -2.62659
H         -4.18779        2.64156       -2.56849
H         -4.26048        4.18927       -1.69295
C         -4.13779        1.93549        0.00025
H         -4.94279        2.61595        0.31520
H         -4.56673        1.16933       -0.66208
H         -3.72132        1.42009        0.87646
C         -2.16274        3.57849        0.18004
O         -1.16025        2.67376        0.64267
C         -2.90130        4.13708        1.38423
H         -3.26012        3.32825        2.03310
H         -2.21987        4.76727        1.97530
H         -3.75706        4.75711        1.07525
C         -1.46723        4.70423       -0.57725
H         -0.95595        4.31857       -1.46946
H         -2.17463        5.48822       -0.88571
H         -0.71057        5.16158        0.07764
B         -1.05970       -0.91471       -1.13435
O         -0.77745       -1.19744       -2.49595
C         -1.97458       -1.64097       -3.14594
C         -2.63586       -0.41264       -3.75928
H         -2.85421        0.33030       -2.97966
H         -1.93234        0.04816       -4.46846
H         -3.55631       -0.66960       -4.30378
C         -1.60973       -2.64273       -4.22677
H         -1.02375       -2.14292       -5.01256
H         -2.51357       -3.06178       -4.69483
H         -1.00976       -3.47269       -3.82918
C         -2.78058       -2.23161       -1.94263
O         -2.31262       -1.44998       -0.84975
C         -4.28685       -2.07787       -2.05330
H         -4.67526       -2.59315       -2.94533
H         -4.77037       -2.51557       -1.16758
H         -4.57056       -1.01909       -2.10261
C         -2.41941       -3.68504       -1.64544
H         -1.32772       -3.81357       -1.59468
H         -2.83432       -3.95749       -0.66421
H         -2.81977       -4.37897       -2.39928
H          4.31231       -4.11022        1.85570
H          4.83076        2.78317        2.95162
C          1.81482        0.63413       -2.11043
C          2.54852       -0.58485       -2.17433
C          2.45555        1.78370       -1.65450
C          3.87201       -0.60590       -1.68730
N          1.96039       -1.68432       -2.69928
C          3.76564        1.78347       -1.17901
Cl         1.60663        3.29250       -1.67937
C          4.42883        0.56347       -1.19682
H          4.46513       -1.51899       -1.66907
H          4.24636        2.68296       -0.79960
F          5.66715        0.51107       -0.69868
H          0.94355       -1.62708       -2.81352
C          2.61937       -2.94375       -2.84694
H          1.92873       -3.65238       -3.32403
H          2.94076       -3.38437       -1.88369
H          3.51361       -2.86537       -3.49055
