111
Int1_comp169_1_Sub11.log	Energy: -1803278.5335385
N         -1.39962        0.08922        1.55165
C         -2.09929       -0.97862        1.97662
C         -3.16605       -0.83272        2.86971
C         -3.48106        0.43087        3.35155
C         -2.70512        1.51684        2.95323
C         -1.67142        1.29590        2.05192
H         -1.02286        2.10565        1.71487
H         -2.89418        2.52373        3.32795
H         -3.73728       -1.70101        3.19472
C         -1.62524       -2.29505        1.50085
N         -0.49570       -2.28121        0.76800
C          0.05676       -3.43424        0.37871
C         -0.52041       -4.66507        0.66897
C         -1.71194       -4.69335        1.38637
C         -2.26593       -3.49528        1.81751
H         -3.19824       -3.49420        2.38016
H         -0.04211       -5.58155        0.32064
H          0.98770       -3.33631       -0.18766
Ir         0.22612       -0.28084        0.08521
H         -0.03781       -0.72552       -2.86354
B          1.59781        0.09003        1.49487
O          1.26537        0.70609        2.69672
C          2.35711        0.54694        3.60293
C          2.45229        1.78066        4.48148
H          2.51281        2.69384        3.87561
H          3.33352        1.73283        5.13948
H          1.55582        1.85210        5.11526
C          2.05581       -0.68499        4.45178
H          2.81433       -0.85009        5.23105
H          1.07970       -0.54505        4.93912
H          1.99351       -1.58527        3.82283
C          3.56904        0.33352        2.63123
O          2.93723       -0.25905        1.49362
C          4.19970        1.64497        2.17700
H          3.43188        2.31738        1.77325
H          4.74489        2.14206        2.99287
H          4.90944        1.43352        1.36415
C          4.63810       -0.61444        3.14425
H          4.23185       -1.61709        3.32895
H          5.43586       -0.70817        2.39265
H          5.08953       -0.23582        4.07431
B          1.80679       -0.83201       -1.06798
O          2.39010       -0.12446       -2.12036
C          3.64265       -0.73393       -2.44059
C          3.93024       -0.53887       -3.91730
H          3.09697       -0.89101       -4.53932
H          4.07943        0.53073       -4.12670
H          4.84468       -1.07439       -4.21552
C          4.70187       -0.03928       -1.58965
H          5.71514       -0.40967       -1.80421
H          4.67201        1.03921       -1.80313
H          4.47713       -0.17292       -0.52171
C          3.40028       -2.21713       -2.00466
O          2.45192       -2.06314       -0.94787
C          4.62679       -2.92749       -1.46078
H          5.00507       -2.42465       -0.56187
H          4.36512       -3.96001       -1.18534
H          5.42894       -2.96864       -2.21379
C          2.74260       -3.05665       -3.09495
H          1.85410       -2.55487       -3.50295
H          3.43563       -3.27522       -3.92067
H          2.41171       -4.01144       -2.66064
B          0.77994        1.57209       -0.52445
O          0.08465        2.32814       -1.48227
C          0.86340        3.47153       -1.83934
C          1.68682        3.09416       -3.06601
H          2.32999        2.23162       -2.84301
H          0.99965        2.79428       -3.87106
H          2.29782        3.93388       -3.42855
C         -0.07129        4.62361       -2.16182
H         -0.65159        4.38560       -3.06568
H          0.49341        5.54857       -2.35552
H         -0.78154        4.80939       -1.34530
C          1.73890        3.67062       -0.55837
O          1.84401        2.34165       -0.05661
C          3.13173        4.21597       -0.81788
H          3.08754        5.20367       -1.30216
H          3.67202        4.32632        0.13391
H          3.70887        3.53382       -1.45485
C          1.03813        4.50404        0.51171
H          0.01429        4.13896        0.68211
H          1.59285        4.40528        1.45618
H          0.98872        5.56998        0.24484
H         -4.31279        0.56271        4.04694
H         -2.20792       -5.63977        1.61171
C         -0.94579       -0.94762       -2.30374
C         -1.78223        0.06585       -1.82716
C         -1.41589       -2.25648       -2.15063
C         -3.01485       -0.23587       -1.21369
H         -1.47399        1.10057       -1.98043
F         -0.67934       -3.26051       -2.61130
N         -2.52943       -2.57721       -1.55520
C         -3.29365       -1.59977       -1.09259
C         -3.94722        0.84744       -0.73261
Cl        -4.73094       -2.12392       -0.24471
H         -4.22598        0.58775        0.30694
C         -5.24926        0.90657       -1.54873
H         -5.72474       -0.08358       -1.58676
H         -4.99373        1.17829       -2.58860
C         -6.21473        1.93199       -0.96456
H         -7.13323        1.97471       -1.57211
H         -6.52465        1.59355        0.04100
C         -5.58262        3.31545       -0.85845
H         -6.27721        4.02048       -0.37324
H         -5.40207        3.70781       -1.87552
C         -4.25637        3.26493       -0.10742
H         -4.44184        3.00080        0.94987
H         -3.77981        4.25892       -0.10149
C         -3.31315        2.23833       -0.71910
H         -3.08068        2.54003       -1.75561
H         -2.34697        2.22432       -0.19739
