115
Int1_comp22_6_Sub19.log	Energy: -1535220.7864862
N          0.60064       -2.04462        0.53491
C          1.71540       -2.01327        1.28663
C          2.41777       -3.18438        1.58471
C          1.93391       -4.40166        1.12559
C          0.74977       -4.42226        0.39334
C          0.12005       -3.21615        0.11342
H         -0.79097       -3.16361       -0.48764
H          0.32550       -5.35674        0.02293
H          3.34709       -3.14399        2.15170
C          2.11315       -0.68237        1.78893
N          1.40396        0.36487        1.32467
C          1.65140        1.59747        1.78415
C          2.64349        1.84766        2.72412
C          3.39696        0.77858        3.20647
C          3.12443       -0.49949        2.73847
H          3.68364       -1.35383        3.11852
H          2.81549        2.86794        3.07057
H          1.01368        2.38532        1.36992
Ir        -0.24324       -0.09450       -0.07406
H         -0.34788        0.23695       -2.87018
B         -1.58062       -0.07944        1.46290
O         -2.02988       -1.23288        2.09797
C         -2.61734       -0.86031        3.34467
C         -3.76485       -1.80165        3.65951
H         -4.48699       -1.83850        2.83441
H         -4.29018       -1.49317        4.57651
H         -3.37625       -2.81923        3.81350
C         -1.52590       -0.98794        4.40467
H         -1.90319       -0.79061        5.41891
H         -1.12655       -2.01229        4.37342
H         -0.69654       -0.29581        4.19547
C         -3.03383        0.62649        3.08271
O         -2.06313        1.04095        2.11944
C         -4.40381        0.75198        2.42477
H         -4.44625        0.13736        1.51544
H         -5.21956        0.46874        3.10615
H         -4.55422        1.79832        2.12144
C         -2.94627        1.53634        4.29454
H         -1.92412        1.57908        4.69220
H         -3.23795        2.55735        4.00780
H         -3.62454        1.19839        5.09333
B         -0.91227        1.75441       -0.55956
O         -1.68114        2.08579       -1.67874
C         -2.13729        3.43022       -1.52788
C         -2.32826        4.05401       -2.89711
H         -1.42363        3.96061       -3.51215
H         -3.14830        3.54321       -3.42335
H         -2.59054        5.11995       -2.81305
C         -3.46356        3.36905       -0.77501
H         -3.92842        4.36068       -0.67097
H         -4.15016        2.71224       -1.32744
H         -3.31757        2.92781        0.22165
C         -0.99289        4.05638       -0.66766
O         -0.56312        2.93417        0.10386
C         -1.43144        5.16499        0.27102
H         -2.16366        4.79584        1.00010
H         -0.56278        5.54655        0.82838
H         -1.87376        6.00509       -0.28648
C          0.19367        4.51066       -1.51288
H          0.49395        3.72200       -2.21875
H         -0.02781        5.42518       -2.08269
H          1.04589        4.71671       -0.84817
B         -1.95368       -0.73547       -0.97356
O         -1.99408       -1.74482       -1.96397
C         -3.30182       -1.75380       -2.54692
C         -3.26849       -0.78743       -3.72790
H         -3.03526        0.23154       -3.38300
H         -2.47772       -1.10313       -4.42521
H         -4.22112       -0.77118       -4.27725
C         -3.63371       -3.15847       -3.01175
H         -2.96557       -3.44729       -3.83727
H         -4.66899       -3.21697       -3.38114
H         -3.50982       -3.88901       -2.20151
C         -4.17424       -1.21936       -1.36831
O         -3.26323       -0.34835       -0.70410
C         -5.39783       -0.42586       -1.78992
H         -6.08763       -1.04434       -2.38483
H         -5.93603       -0.07743       -0.89619
H         -5.11638        0.45746       -2.37707
C         -4.56980       -2.31807       -0.38627
H         -3.68859       -2.88352       -0.05113
H         -5.01988       -1.85432        0.50258
H         -5.30378       -3.01349       -0.81918
H          2.48011       -5.32358        1.33376
H          4.18431        0.93668        3.94654
C          0.46526       -0.28606       -2.37346
N          0.75573       -1.59770       -2.70358
C          1.57355        0.27488       -1.72095
C          1.99130       -1.92785       -2.20523
H         -0.00195       -2.24461       -2.89030
C          2.56531       -0.76929       -1.62685
H          1.73994        1.33943       -1.57433
C          2.68612       -3.13845       -2.17392
C          3.86315       -0.84745       -1.08990
N          3.89614       -3.21385       -1.64023
H          2.25157       -4.05715       -2.58579
C          4.46183       -2.10869       -1.13406
C          4.53587        0.38661       -0.54456
H          5.46869       -2.24525       -0.72742
H          3.78914        0.90676        0.08370
C          4.91467        1.35983       -1.67232
H          4.03796        1.56135       -2.30687
H          5.65890        0.86689       -2.32321
C          5.48491        2.66063       -1.11984
H          5.77063        3.33233       -1.94561
H          4.69490        3.18559       -0.55185
C          6.67663        2.40528       -0.20410
H          7.04254        3.35133        0.22725
H          7.50970        1.99412       -0.80267
C          6.32358        1.41663        0.90216
H          5.57277        1.87404        1.57129
H          7.20850        1.20457        1.52432
C          5.75642        0.12029        0.33452
H          6.53748       -0.38066       -0.26453
H          5.49207       -0.57506        1.14737
