112
Int1_comp33_6_Sub21.log	Energy: -1570188.8375711
N          0.61611       -2.24209       -0.99192
C          1.48137       -2.91037       -0.21163
C          1.72983       -4.27059       -0.41348
C          1.08436       -4.93306       -1.45082
C          0.21131       -4.21910       -2.26721
C          0.00493       -2.87147       -1.99564
H         -0.67870       -2.26053       -2.59089
H         -0.31456       -4.69521       -3.09613
H          2.41280       -4.81289        0.24013
C          2.13721       -2.11960        0.85275
N          1.70016       -0.85515        1.00507
C          2.24124       -0.07162        1.94189
C          3.27849       -0.50580        2.76118
C          3.75502       -1.80355        2.60571
C          3.16942       -2.62401        1.64850
H          3.52402       -3.64585        1.51519
H          3.70040        0.17180        3.50513
H          1.78954        0.92072        2.03527
Ir        -0.02651       -0.23729       -0.27259
H          0.12435        1.27342       -2.77818
B         -1.28682       -1.16135        0.98137
O         -1.52484       -2.52909        0.87767
C         -2.14144       -2.97155        2.08671
C         -3.11336       -4.09101        1.76465
H         -3.82762       -3.78301        0.99048
H         -3.67250       -4.40207        2.66047
H         -2.55923       -4.96293        1.38624
C         -1.02507       -3.48163        2.99436
H         -1.41156       -3.91231        3.92974
H         -0.46544       -4.26177        2.45695
H         -0.32404       -2.67073        3.24259
C         -2.80130       -1.65525        2.61997
O         -1.91603       -0.65621        2.10493
C         -4.17892       -1.40288        2.01772
H         -4.13200       -1.45775        0.92200
H         -4.92878       -2.11226        2.39775
H         -4.49884       -0.38426        2.27915
C         -2.85207       -1.53252        4.13174
H         -1.84629       -1.55122        4.57105
H         -3.32219       -0.57702        4.40747
H         -3.44895       -2.34501        4.57411
B         -0.63910        1.46046        0.67058
O         -1.67192        2.31970        0.32232
C         -1.99550        3.15557        1.43358
C         -2.43325        4.51757        0.92370
H         -1.70231        4.94991        0.22940
H         -3.38295        4.41284        0.37845
H         -2.59853        5.21570        1.75885
C         -3.14506        2.48026        2.17551
H         -3.50236        3.08566        3.02175
H         -3.97643        2.33998        1.46940
H         -2.84110        1.48622        2.52899
C         -0.65529        3.15696        2.25446
O         -0.03168        1.93981        1.83551
C         -0.83666        3.10639        3.76239
H         -1.35846        2.18987        4.06505
H          0.14831        3.11457        4.25347
H         -1.40392        3.97744        4.12441
C          0.26851        4.31120        1.88434
H          0.38018        4.39816        0.79623
H         -0.10772        5.27141        2.26593
H          1.26104        4.13113        2.32350
B         -1.72041        0.03716       -1.34784
O         -1.76300        0.36841       -2.71090
C         -3.10666        0.73899       -3.04425
C         -3.22319        2.24480       -2.83142
H         -3.00571        2.50499       -1.78536
H         -2.47848        2.75529       -3.45937
H         -4.21911        2.62309       -3.10531
C         -3.37576        0.38100       -4.49351
H         -2.74590        0.99982       -5.14949
H         -4.42781        0.57064       -4.75656
H         -3.14645       -0.67292       -4.69943
C         -3.92919       -0.08147       -1.99638
O         -3.02312       -0.15951       -0.90010
C         -5.20943        0.58834       -1.52968
H         -5.89870        0.75995       -2.37087
H         -5.71816       -0.05464       -0.79616
H         -4.99422        1.54853       -1.04425
C         -4.21779       -1.50924       -2.45239
H         -3.29997       -2.00185       -2.80547
H         -4.59636       -2.08504       -1.59516
H         -4.96890       -1.54596       -3.25523
H          1.26067       -5.99799       -1.61755
H          4.57300       -2.17824        3.22443
C          0.99963        1.42394       -2.14413
C          1.96127        0.42718       -1.99602
C          1.25764        2.68157       -1.55835
C          3.13909        0.63925       -1.24164
H          1.85222       -0.50780       -2.54126
C          0.36012        3.77228       -1.78888
C          2.39495        2.87744       -0.78121
C          4.12311       -0.47660       -1.17118
C          3.34791        1.86600       -0.58109
N         -0.33761        4.67595       -1.99183
H          2.54535        3.85195       -0.31864
O          5.18343       -0.47148       -0.59176
O          3.70714       -1.55443       -1.85622
C          4.55920        2.16623        0.28341
C          4.58521       -2.66050       -1.85929
H          4.08689       -3.44504       -2.44031
H          4.77836       -3.00872       -0.83347
H          5.54941       -2.39488       -2.31746
H          4.87462        1.21656        0.73355
C          5.72021        2.65691       -0.58458
H          6.61062        2.84655        0.03491
H          5.99034        1.90774       -1.34120
H          5.45714        3.59494       -1.09963
C          4.26652        3.14689        1.41537
H          3.38382        2.84474        1.99909
H          5.12878        3.19013        2.09790
H          4.09495        4.17365        1.05564
