100
Int1_comp169_1_Sub7.log	Energy: -1715498.2716567
N          1.61983       -1.36493        0.95268
C          2.73772       -0.84581        1.49169
C          3.74721       -1.67310        1.99422
C          3.57956       -3.05080        1.95309
C          2.39884       -3.57184        1.42743
C          1.44481       -2.68688        0.93942
H          0.49865       -3.03428        0.52141
H          2.21292       -4.64656        1.39575
H          4.65615       -1.24402        2.41380
C          2.80630        0.63018        1.54085
N          1.72004        1.28382        1.08621
C          1.67983        2.61832        1.13621
C          2.74403        3.37085        1.62121
C          3.88241        2.71138        2.07131
C          3.91040        1.32301        2.04123
H          4.79352        0.78696        2.38516
H          2.67442        4.45955        1.63184
H          0.75484        3.07052        0.76542
Ir         0.15041        0.05379        0.08799
H          0.58290        0.26657       -2.63507
B         -1.14138       -0.23344        1.57854
O         -1.02121       -1.31699        2.44537
C         -1.86169       -1.08425        3.57518
C         -2.41416       -2.41148        4.06148
H         -2.90963       -2.95583        3.24729
H         -3.13510       -2.26576        4.88061
H         -1.59158       -3.03797        4.43746
C         -0.99333       -0.44560        4.65560
H         -1.54327       -0.29139        5.59567
H         -0.13862       -1.10832        4.85599
H         -0.59772        0.52253        4.31478
C         -2.93253       -0.09626        2.99586
O         -2.19444        0.57554        1.97297
C         -4.09795       -0.81653        2.32651
H         -3.72614       -1.53840        1.58781
H         -4.74134       -1.32555        3.05939
H         -4.70578       -0.07779        1.78439
C         -3.44946        0.93471        3.98319
H         -2.63953        1.57263        4.35945
H         -4.18401        1.58386        3.48407
H         -3.94769        0.45021        4.83716
B         -1.11160        1.51334       -0.54750
O         -2.04749        1.45289       -1.58229
C         -2.93211        2.56840       -1.46475
C         -3.42311        2.96686       -2.84400
H         -2.58656        3.13087       -3.53554
H         -4.05336        2.16608       -3.25884
H         -4.02911        3.88481       -2.79709
C         -4.09766        2.11915       -0.58789
H         -4.86393        2.90153       -0.48340
H         -4.56216        1.23438       -1.04728
H         -3.73200        1.82296        0.40582
C         -2.02258        3.62563       -0.75715
O         -1.14644        2.79507        0.00579
C         -2.75373        4.56303        0.18691
H         -3.23044        4.00616        1.00349
H         -2.03924        5.27113        0.63271
H         -3.52126        5.14489       -0.34662
C         -1.16856        4.41993       -1.73991
H         -0.64397        3.75090       -2.43559
H         -1.76829        5.13878       -2.31766
H         -0.40663        4.98058       -1.17843
B         -1.18462       -1.10471       -0.88637
O         -0.92736       -1.72047       -2.14111
C         -2.14849       -2.24806       -2.67422
C         -2.74843       -1.17559       -3.57516
H         -2.92494       -0.25439       -3.00294
H         -2.02631       -0.93895       -4.37082
H         -3.68335       -1.51086       -4.04748
C         -1.83892       -3.50124       -3.47345
H         -1.23883       -3.23924       -4.35802
H         -2.76473       -3.98084       -3.82604
H         -1.27397       -4.23340       -2.88053
C         -2.97810       -2.48515       -1.36968
O         -2.46406       -1.48709       -0.49604
C         -4.47455       -2.28326       -1.52711
H         -4.89425       -2.97904       -2.26994
H         -4.97615       -2.46590       -0.56551
H         -4.70198       -1.25490       -1.83470
C         -2.69450       -3.84009       -0.72575
H         -1.61151       -4.00914       -0.63029
H         -3.12302       -3.84568        0.28685
H         -3.13190       -4.67384       -1.29461
H          4.35885       -3.71129        2.33955
H          4.74451        3.26966        2.44207
C          1.58548        0.25261       -2.20724
C          2.33925       -0.95251       -2.12432
C          2.25406        1.43338       -1.91060
C          3.67734       -0.85183       -1.67594
N          1.77537       -2.12495       -2.46047
F          1.60345        2.58009       -2.05126
N          3.49455        1.54326       -1.48578
C          4.16098        0.41009       -1.37146
H          4.31215       -1.72635       -1.55232
Cl         5.79154        0.52942       -0.76639
H          0.74940       -2.11070       -2.52766
C          2.45794       -3.38265       -2.40245
H          1.77066       -4.17287       -2.73283
H          2.80460       -3.63873       -1.38410
H          3.33528       -3.40168       -3.07140
