101
Int1_comp173_1_Sub15.log	Energy: -1705418.0974231
N          1.72296        0.71285       -1.39255
C          2.78947       -0.07895       -1.60912
C          3.90066        0.38547       -2.31939
C          3.89152        1.68130       -2.81927
C          2.76745        2.47736       -2.61191
C          1.69997        1.95199       -1.89255
H          0.78285        2.51611       -1.69812
H          2.71088        3.49725       -2.99520
H          4.76872       -0.25543       -2.46692
C          2.69126       -1.45360       -1.07579
N          1.58678       -1.72893       -0.35989
C          1.38822       -2.96397        0.10031
C          2.30113       -3.99152       -0.10096
C          3.46450       -3.71548       -0.81429
C          3.65923       -2.43416       -1.31365
H          4.55119       -2.20158       -1.89401
H          2.09958       -4.98548        0.30098
H          0.45842       -3.12070        0.64962
Ir         0.16723       -0.06139       -0.00945
H          1.15020       -0.50481        2.71454
B         -1.11470       -0.84067       -1.33012
O         -2.29626       -0.29119       -1.80272
C         -2.74723       -1.05761       -2.91674
C         -4.26504       -1.07814       -2.92103
H         -4.65819       -1.40419       -1.94976
H         -4.65069       -1.74691       -3.70609
H         -4.64855       -0.06584       -3.11787
C         -2.22253       -0.37230       -4.17515
H         -2.58965       -0.85226       -5.09449
H         -2.55581        0.67554       -4.16759
H         -1.12275       -0.37289       -4.18849
C         -2.07002       -2.44439       -2.65362
O         -0.88326       -2.06587       -1.95190
C         -2.89079       -3.32342       -1.71576
H         -3.15884       -2.76022       -0.81083
H         -3.80175       -3.70661       -2.19892
H         -2.27333       -4.18156       -1.41048
C         -1.68254       -3.21474       -3.90215
H         -0.96915       -2.65067       -4.51685
H         -1.20504       -4.16354       -3.61566
H         -2.56839       -3.44917       -4.51249
B         -1.15524       -0.80930        1.33271
O         -0.91521       -0.82595        2.71599
C         -2.11630       -1.19034        3.39843
C         -1.75809       -1.96903        4.65169
H         -1.10415       -2.82156        4.42656
H         -1.22467       -1.31078        5.35329
H         -2.66259       -2.34176        5.15681
C         -2.84081        0.09925        3.76842
H         -3.76791       -0.09403        4.32815
H         -2.17476        0.70627        4.39923
H         -3.06046        0.68582        2.86640
C         -2.86631       -2.01636        2.30090
O         -2.38109       -1.43125        1.09579
C         -4.37929       -1.89554        2.33196
H         -4.69393       -0.85565        2.17823
H         -4.81537       -2.50279        1.52467
H         -4.78857       -2.25417        3.28905
C         -2.45715       -3.48737        2.29167
H         -1.36135       -3.58637        2.29831
H         -2.86125       -4.03686        3.15465
H         -2.83486       -3.95663        1.37205
B         -1.12268        1.51101        0.02309
O         -1.22799        2.43607       -1.01706
C         -2.18523        3.44216       -0.68755
C         -1.42090        4.68733       -0.25290
H         -0.81934        4.48786        0.64419
H         -0.73199        4.98243       -1.05859
H         -2.09461        5.53295       -0.04990
C         -3.01330        3.74186       -1.92542
H         -2.37297        4.19798       -2.69529
H         -3.82975        4.44509       -1.69943
H         -3.43983        2.82085       -2.34253
C         -2.98482        2.77518        0.48689
O         -2.02654        1.86427        1.02551
C         -3.42979        3.73161        1.57902
H         -4.11022        4.49927        1.17933
H         -3.96845        3.17351        2.35903
H         -2.57407        4.23018        2.05231
C         -4.16655        1.93973        0.00161
H         -3.83615        1.21297       -0.75360
H         -4.56808        1.37221        0.85394
H         -4.97440        2.56396       -0.40819
H          4.75282        2.06346       -3.37219
H          4.21019       -4.49392       -0.99034
C          1.83098        0.15465        2.17243
C          1.44839        1.47285        1.89565
C          3.10059       -0.29976        1.82553
C          2.39830        2.30446        1.28430
H          0.48596        1.85521        2.23427
F          3.38986       -1.58794        2.07238
C          4.04727        0.51131        1.19102
C          3.65802        1.84621        0.94236
Cl         1.99296        3.95331        0.93095
N          5.28334        0.07095        0.75526
H          4.36008        2.52466        0.45355
H          5.86654        0.83560        0.44141
C          6.02068       -0.99867        1.38867
H          7.00992       -1.06202        0.91462
H          5.51843       -1.96419        1.24979
H          6.16916       -0.84623        2.47427
