97
Int1_comp39_1_Sub9.log	Energy: -1493056.3850175
N         -1.31369       -1.93129        0.31049
C         -2.44636       -2.03739       -0.40771
C         -3.24097       -3.18718       -0.33200
C         -2.84848       -4.23274        0.49337
C         -1.66860       -4.10852        1.22530
C         -0.93244       -2.93680        1.10221
H         -0.00974       -2.77109        1.66292
H         -1.31978       -4.90415        1.88550
H         -4.15937       -3.26471       -0.91291
C         -2.77660       -0.88272       -1.26989
N         -1.90158        0.13915       -1.24428
C         -2.10963        1.20952       -2.01761
C         -3.22106        1.31960       -2.84475
C         -4.14438        0.27773       -2.87066
C         -3.91551       -0.83989       -2.08016
H         -4.62509       -1.66633       -2.08465
H         -3.35440        2.21359       -3.45601
H         -1.33381        1.97975       -1.96253
Ir        -0.15264       -0.05497        0.11390
H         -0.90407       -0.25289        2.89248
B          1.11297       -0.89337       -1.20061
O          1.24592       -2.27627       -1.31326
C          1.98649       -2.56826       -2.49662
C          2.84889       -3.79285       -2.25054
H          3.47370       -3.66257       -1.35769
H          3.50080       -4.00088       -3.11299
H          2.20564       -4.67058       -2.08821
C          0.97107       -2.85172       -3.60069
H          1.45130       -3.15666       -4.54222
H          0.30927       -3.66474       -3.26737
H          0.34808       -1.96564       -3.79270
C          2.78191       -1.23758       -2.73085
O          1.91906       -0.26553       -2.13847
C          4.10479       -1.19754       -1.97308
H          3.93934       -1.40446       -0.90758
H          4.83841       -1.90585       -2.38560
H          4.52346       -0.18342       -2.04666
C          3.00176       -0.87531       -4.18889
H          2.04985       -0.74734       -4.72004
H          3.55118        0.07561       -4.25070
H          3.59575       -1.64655       -4.70343
B          0.82646        1.68137       -0.25121
O          1.73449        2.33599        0.58640
C          2.38377        3.36067       -0.16483
C          2.79253        4.48500        0.76786
H          1.94300        4.84340        1.36408
H          3.56364        4.12324        1.46416
H          3.21321        5.33292        0.20553
C          3.61084        2.72660       -0.81438
H          4.21644        3.46136       -1.36557
H          4.23081        2.27752       -0.02535
H          3.30468        1.91742       -1.49330
C          1.28284        3.73205       -1.20989
O          0.60559        2.48664       -1.37449
C          1.81022        4.18978       -2.55742
H          2.40103        3.39869       -3.03599
H          0.96890        4.43247       -3.22384
H          2.43449        5.09089       -2.45440
C          0.27098        4.73677       -0.66606
H         -0.10014        4.42353        0.32101
H          0.69651        5.74712       -0.57545
H         -0.58708        4.78627       -1.35316
B          1.40361       -0.40769        1.35214
O          1.23551       -0.64210        2.73084
C          2.51673       -0.55645        3.36126
C          2.71399        0.89953        3.77389
H          2.68620        1.55370        2.88952
H          1.88595        1.19186        4.43667
H          3.65969        1.05312        4.31452
C          2.53923       -1.46532        4.57540
H          1.83314       -1.09136        5.33175
H          3.54145       -1.49105        5.03029
H          2.24573       -2.49106        4.31570
C          3.46932       -0.98104        2.19688
O          2.75885       -0.52285        1.05199
C          4.83846       -0.32506        2.22361
H          5.38602       -0.58223        3.14363
H          5.43107       -0.67221        1.36428
H          4.75371        0.76678        2.15375
C          3.61415       -2.49582        2.07441
H          2.62887       -2.98392        2.05158
H          4.12053       -2.72856        1.12650
H          4.20513       -2.92532        2.89681
H         -3.45723       -5.13685        0.56291
H         -5.03461        0.33267       -3.50068
C         -1.58170        0.35870        2.29855
N         -2.89426        0.03052        2.09673
C         -1.38375        1.64130        1.78069
C         -3.52559        1.04354        1.42563
H         -3.30503       -0.87308        2.28740
C         -2.62862        2.06895        1.23056
H         -0.48255        2.23568        1.91173
C         -4.95606        0.93433        1.04767
H         -2.83672        3.01158        0.73025
F         -5.23416        1.65925       -0.03520
F         -5.78873        1.33956        2.01567
F         -5.28463       -0.34790        0.78751
