96
Int1_comp173_4_Sub10.log	Energy: -1934378.3831808
N         -1.54247       -1.82122       -0.03739
C         -2.65786       -1.69864       -0.77853
C         -3.56316       -2.75705       -0.89791
C         -3.29618       -3.95529       -0.24871
C         -2.12845       -4.07128        0.49976
C         -1.27987       -2.97439        0.57740
H         -0.35563       -3.00299        1.15638
H         -1.87561       -4.99332        1.02502
H         -4.46550       -2.64926       -1.49828
C         -2.84262       -0.39991       -1.46069
N         -1.83007        0.47900       -1.33764
C         -1.88739        1.65494       -1.96995
C         -2.98812        2.03043       -2.73220
C         -4.05887        1.14707       -2.84195
C         -3.98218       -0.08624       -2.20707
H         -4.80865       -0.79189       -2.27901
H         -2.99809        3.00449       -3.22354
H         -1.00643        2.29254       -1.85014
Ir        -0.19254       -0.06213        0.06134
H         -0.90257       -0.18812        2.83945
B          1.04978       -0.94166       -1.24731
O          0.92619       -2.29377       -1.55254
C          1.69688       -2.56483       -2.72276
C          2.27010       -3.96630       -2.62221
H          2.82680       -4.09982       -1.68582
H          2.94070       -4.18326       -3.46783
H          1.45145       -4.70113       -2.63741
C          0.74806       -2.46568       -3.91416
H          1.23992       -2.72868       -4.86221
H         -0.09110       -3.15821       -3.75241
H          0.33617       -1.44927       -3.99993
C          2.75858       -1.41220       -2.69534
O          2.05050       -0.37247       -2.01568
C          3.98478       -1.76124       -1.85934
H          3.68221       -2.09007       -0.85677
H          4.60057       -2.53594       -2.33946
H          4.59954       -0.85818       -1.73509
C          3.18164       -0.90159       -4.06100
H          2.32874       -0.49780       -4.62133
H          3.91640       -0.09213       -3.93822
H          3.65184       -1.70098       -4.65432
B          1.02855        1.55565       -0.13742
O          1.97004        2.03642        0.77431
C          2.86980        2.90477        0.08304
C          3.37378        3.96641        1.04330
H          2.54536        4.49744        1.52977
H          3.97937        3.49216        1.82981
H          4.00770        4.70099        0.52332
C          4.02712        2.04151       -0.41023
H          4.79797        2.63649       -0.92184
H          4.48725        1.54209        0.45407
H          3.65456        1.25840       -1.08504
C          1.97614        3.44128       -1.08879
O          1.03201        2.38263       -1.25927
C          2.71013        3.64466       -2.40316
H          3.11965        2.69613       -2.77249
H          2.00978        4.02725       -3.16060
H          3.52797        4.37379       -2.29525
C          1.20653        4.70252       -0.71631
H          0.68095        4.57836        0.23997
H          1.86791        5.57886       -0.64741
H          0.45064        4.90209       -1.49044
B          1.25507       -0.64304        1.35773
O          1.06022       -0.74745        2.74446
C          2.32977       -0.92233        3.37984
C          2.84134        0.46588        3.75074
H          2.93593        1.09095        2.85116
H          2.10546        0.94461        4.41380
H          3.80518        0.42426        4.27924
C          2.15128       -1.77396        4.62291
H          1.54589       -1.22815        5.36162
H          3.12349       -2.00491        5.08495
H          1.63671       -2.71670        4.39573
C          3.16446       -1.58883        2.23739
O          2.55606       -1.04872        1.06805
C          4.64077       -1.23522        2.23940
H          5.12646       -1.56655        3.17020
H          5.14239       -1.73209        1.39592
H          4.78857       -0.15382        2.12878
C          2.98951       -3.10453        2.18413
H          1.92419       -3.37742        2.20420
H          3.41264       -3.47758        1.24011
H          3.49736       -3.61199        3.01745
H         -3.99371       -4.79162       -0.32997
H         -4.94624        1.41182       -3.42117
C         -1.64464        0.35999        2.25299
C         -2.91324       -0.19051        2.04406
C         -1.37473        1.66208        1.80725
C         -3.90245        0.52059        1.37974
F         -3.16087       -1.42362        2.46524
C         -2.39962        2.38328        1.16882
H         -0.42517        2.13906        2.05073
C         -3.64847        1.82754        0.94508
Cl        -5.43728       -0.21484        1.08769
Cl        -2.09886        3.99997        0.62794
H         -4.42730        2.38927        0.43017
