112
Int1_comp27_5_Sub11.log	Energy: -2019288.9172404
N          1.32144       -1.38435        1.03744
C          2.13102       -0.89087        1.99047
C          3.01959       -1.72214        2.68095
C          3.06219       -3.07620        2.37473
C          2.19745       -3.57493        1.40256
C          1.33394       -2.69213        0.76687
H          0.61058       -3.02729        0.02147
H          2.18101       -4.63404        1.14143
H          3.66265       -1.31688        3.46184
C          1.98572        0.55161        2.27850
N          0.94461        1.16631        1.68655
C          0.71374        2.46071        1.92755
C          1.52780        3.21353        2.76725
C          2.62144        2.59854        3.36852
C          2.85114        1.24987        3.12566
H          3.70505        0.74808        3.58074
H          1.30861        4.27002        2.92552
H         -0.16248        2.88069        1.42346
Ir        -0.17599       -0.01903        0.17049
H          0.05041        1.44470       -2.33389
B         -1.55153       -0.92742        1.31274
O         -1.31028       -2.15475        1.92127
C         -2.37540       -2.43892        2.82666
C         -2.64837       -3.93174        2.81125
H         -2.82206       -4.28844        1.78804
H         -3.52407       -4.18249        3.42955
H         -1.77846       -4.47034        3.21611
C         -1.91612       -1.99618        4.21274
H         -2.64794       -2.24700        4.99475
H         -0.96824       -2.50325        4.44633
H         -1.73422       -0.91159        4.23370
C         -3.53616       -1.55329        2.26063
O         -2.81432       -0.47297        1.66428
C         -4.31497       -2.24175        1.14463
H         -3.62600       -2.63309        0.38337
H         -4.95181       -3.05405        1.52541
H         -4.95682       -1.49400        0.65602
C         -4.48527       -1.00049        3.30805
H         -3.96234       -0.35511        4.02560
H         -5.26573       -0.39827        2.81994
H         -4.98073       -1.81520        3.85844
B         -1.73270        1.23348       -0.24493
O         -2.78640        1.02078       -1.12490
C         -3.59034        2.19466       -1.21955
C         -3.17389        2.92703       -2.49159
H         -2.12106        3.23816       -2.43948
H         -3.28348        2.24058       -3.34363
H         -3.79467        3.81546       -2.68017
C         -5.04898        1.78016       -1.31170
H         -5.71449        2.65705       -1.29865
H         -5.21858        1.23800       -2.25393
H         -5.32295        1.11383       -0.48384
C         -3.21383        2.97202        0.09096
O         -1.90059        2.47794        0.36607
C         -4.09275        2.59787        1.27970
H         -4.10362        1.50864        1.41745
H         -3.66012        3.04275        2.18815
H         -5.12077        2.97286        1.16693
C         -3.15531        4.48165       -0.06166
H         -2.41365        4.78340       -0.81125
H         -4.13772        4.88610       -0.35028
H         -2.87049        4.93747        0.89840
B         -0.99711       -1.14953       -1.29331
O         -0.69761       -0.96603       -2.65013
C         -1.56136       -1.78840       -3.43583
C         -2.77379       -0.94671       -3.81866
H         -3.29666       -0.59549       -2.91881
H         -2.42354       -0.05795       -4.36391
H         -3.47040       -1.49921       -4.46634
C         -0.81913       -2.23762       -4.68167
H         -0.60154       -1.36400       -5.31358
H         -1.42611       -2.94145       -5.27187
H          0.13608       -2.71907       -4.43381
C         -1.91647       -2.93401       -2.43029
O         -1.81304       -2.27463       -1.16990
C         -3.31515       -3.50469       -2.58044
H         -3.46012       -3.94103       -3.58083
H         -3.47440       -4.29905       -1.83597
H         -4.07694       -2.73209       -2.41727
C         -0.88747       -4.06161       -2.43251
H          0.13354       -3.65843       -2.35522
H         -1.06957       -4.70383       -1.55806
H         -0.94908       -4.68202       -3.33870
H          3.75300       -3.73771        2.90188
H          3.29386        3.16287        4.01818
C          0.95891        1.51932       -1.73630
C          1.79072        0.40135       -1.59936
C          1.39447        2.76915       -1.25498
C          3.06005        0.50406       -0.98451
H          1.48567       -0.51995       -2.09742
C          2.62564        2.86547       -0.61699
Cl         0.41396        4.16743       -1.48247
C          3.44976        1.73728       -0.48315
C          3.95634       -0.71052       -0.94177
Cl         3.19473        4.38011       -0.00733
H          4.41339        1.87105        0.00733
H          3.34560       -1.53905       -0.54131
C          5.18059       -0.57308       -0.03957
H          4.87189       -0.27237        0.97453
H          5.82964        0.23444       -0.42401
C          5.98038       -1.86967        0.01014
H          6.86389       -1.74641        0.65743
H          5.35908       -2.65591        0.47571
C          6.40154       -2.31807       -1.38496
H          6.94008       -3.27835       -1.33502
H          7.11511       -1.58312       -1.79958
C          5.20068       -2.42782       -2.31774
H          4.54615       -3.24869       -1.97186
H          5.52632       -2.69883       -3.33503
C          4.39399       -1.13494       -2.35203
H          4.99914       -0.32252       -2.79306
H          3.51207       -1.25152       -3.00102
