112
Int1_comp173_0_Sub19.log	Energy: -1793209.6476041
N          0.46442        2.28443       -1.46134
C         -0.26915        3.29810       -0.97141
C         -0.09353        4.60328       -1.44095
C          0.85031        4.85011       -2.43016
C          1.59334        3.78618       -2.93485
C          1.36471        2.51664       -2.41801
H          1.91636        1.64087       -2.76955
H          2.34386        3.93132       -3.71333
H         -0.68357        5.42374       -1.03364
C         -1.24076        2.94382        0.08723
N         -1.23461        1.65970        0.48968
C         -2.06994        1.26053        1.45245
C         -2.97447        2.12923        2.05540
C         -3.00347        3.45776        1.64153
C         -2.12199        3.87110        0.64976
H         -2.12729        4.90706        0.31231
H         -3.64078        1.76001        2.83698
H         -1.96764        0.21246        1.75049
Ir         0.34568        0.33437       -0.39397
H         -0.03755       -1.63806       -2.71897
B          1.68318        1.00920        0.92748
O          2.39501        2.18365        0.69386
C          2.98848        2.60279        1.92180
C          4.32025        3.26690        1.62600
H          4.96324        2.61108        1.02522
H          4.84929        3.52904        2.55518
H          4.15212        4.19191        1.05454
C          2.02796        3.60158        2.56262
H          2.43497        4.03920        3.48609
H          1.83853        4.41438        1.84568
H          1.06500        3.12218        2.79390
C          3.08272        1.25741        2.71806
O          1.96898        0.52924        2.19493
C          4.34415        0.46665        2.38864
H          4.44126        0.33945        1.30222
H          5.24732        0.94681        2.79331
H          4.25720       -0.53767        2.82712
C          2.91859        1.39152        4.22097
H          1.94049        1.81577        4.48222
H          2.99049        0.39837        4.68853
H          3.70851        2.02734        4.64986
B          0.22574       -1.29080        0.82149
O          0.90639       -2.49928        0.74100
C          0.79627       -3.19201        1.98196
C          0.75979       -4.68655        1.71518
H         -0.02395       -4.94542        0.99252
H          1.72461       -5.00540        1.29347
H          0.59237       -5.25129        2.64532
C          2.03287       -2.83181        2.80028
H          2.06495       -3.36507        3.76206
H          2.92492       -3.10395        2.21743
H          2.07028       -1.74764        2.97267
C         -0.52792       -2.59890        2.58362
O         -0.61182       -1.32629        1.94261
C         -0.49700       -2.37961        4.08702
H          0.29022       -1.66715        4.36391
H         -1.46116       -1.96609        4.41991
H         -0.32958       -3.32561        4.62459
C         -1.76944       -3.39594        2.19929
H         -1.79166       -3.59210        1.11941
H         -1.81924       -4.35816        2.73013
H         -2.66346       -2.81076        2.46301
B          1.95277       -0.63873       -1.13652
O          2.04177       -1.15951       -2.43881
C          3.18846       -2.01391       -2.50327
C          2.72414       -3.41695       -2.12255
H          2.30248       -3.41874       -1.10658
H          1.92603       -3.72738       -2.81301
H          3.53980       -4.15249       -2.18610
C          3.74312       -1.99881       -3.91502
H          3.01590       -2.45578       -4.60240
H          4.67834       -2.57641       -3.97696
H          3.93846       -0.97526       -4.26114
C          4.11852       -1.37690       -1.41915
O          3.17597       -0.83594       -0.50003
C          5.00943       -2.36429       -0.68618
H          5.68871       -2.88145       -1.38152
H          5.62103       -1.83058        0.05638
H          4.40890       -3.11170       -0.15251
C          4.95061       -0.21666       -1.95904
H          4.31796        0.49931       -2.50387
H          5.40480        0.31766       -1.11177
H          5.75540       -0.55677       -2.62752
H          1.00307        5.86525       -2.80289
H         -3.70144        4.16938        2.08802
C         -0.98047       -1.34632       -2.25521
C         -1.44727       -0.03342       -2.37510
C         -1.78581       -2.28076       -1.59308
C         -2.66685        0.31034       -1.79149
H         -0.91928        0.69799       -2.98656
C         -2.98435       -1.91098       -0.99988
Cl        -1.27489       -3.93702       -1.53827
F         -3.08727        1.57739       -1.91525
C         -3.44382       -0.58641       -1.06680
H         -3.56836       -2.66406       -0.47096
C         -4.72725       -0.12151       -0.42618
H         -4.56921        0.93360       -0.14099
C         -5.09409       -0.88365        0.84642
H         -4.24802       -0.86519        1.55226
H         -5.27346       -1.94639        0.60593
C         -6.35272       -0.30897        1.48579
H         -6.60909       -0.87411        2.39639
H         -6.15217        0.72919        1.80897
C         -7.52316       -0.31362        0.50786
H         -8.41544        0.13653        0.97242
H         -7.79029       -1.35996        0.27290
C         -7.17127        0.41480       -0.78473
H         -7.02414        1.48839       -0.56735
H         -8.00777        0.35637       -1.49985
C         -5.89947       -0.13909       -1.41764
H         -6.06490       -1.17941       -1.75115
H         -5.63122        0.43939       -2.31548
