112
Int1_comp44_5_Sub19.log	Energy: -1465916.6083082
N         -0.43336       -2.10728        0.75821
C         -1.32799       -2.75602       -0.00641
C         -1.75904       -4.04469        0.32789
C         -1.24369       -4.66354        1.45843
C         -0.29164       -3.98894        2.21982
C          0.08965       -2.71338        1.82641
H          0.85676       -2.14886        2.35966
H          0.15951       -4.44235        3.10371
H         -2.48237       -4.56652       -0.29796
C         -1.76493       -2.05219       -1.22926
N         -1.16890       -0.87057       -1.47565
C         -1.46589       -0.19824       -2.59277
C         -2.38261       -0.67407       -3.52352
C         -3.02148       -1.88687       -3.27525
C         -2.70821       -2.58426       -2.11590
H         -3.19562       -3.53476       -1.90129
H         -2.58951       -0.09492       -4.42483
H         -0.92116        0.74143       -2.72595
Ir         0.24291       -0.12472        0.08222
H         -0.47898        2.39364        1.15014
B          1.88831       -1.06151       -0.68450
O          2.87631       -0.53980       -1.51035
C          3.95911       -1.47074       -1.57339
C          4.61266       -1.38240       -2.94043
H          3.87558       -1.49389       -3.74625
H          5.38701       -2.15626       -3.05826
H          5.09452       -0.40033       -3.05701
C          4.95074       -1.08251       -0.48122
H          5.84710       -1.72044       -0.49054
H          5.26282       -0.04107       -0.64733
H          4.46956       -1.13072        0.50562
C          3.23312       -2.82410       -1.27590
O          2.15113       -2.40772       -0.44525
C          2.62265       -3.45298       -2.52542
H          2.03157       -2.71170       -3.08319
H          3.38577       -3.87474       -3.19629
H          1.94517       -4.26213       -2.21495
C          4.06774       -3.84526       -0.52504
H          4.38148       -3.45567        0.45177
H          3.47137       -4.75359       -0.35204
H          4.96327       -4.12767       -1.09996
B          1.05137        1.49689       -0.85458
O          1.96252        2.41741       -0.34797
C          2.42159        3.26501       -1.39900
C          2.67973        4.65297       -0.83891
H          1.80531        5.03935       -0.29937
H          3.51928        4.61243       -0.12957
H          2.94455        5.36086       -1.63958
C          3.71656        2.66538       -1.93772
H          4.16408        3.28880       -2.72602
H          4.43495        2.58691       -1.10825
H          3.53912        1.64995       -2.31668
C          1.24124        3.18009       -2.42516
O          0.69929        1.88818       -2.15309
C          1.65772        3.24478       -3.88339
H          2.32725        2.41390       -4.13904
H          0.76826        3.17507       -4.52771
H          2.16704        4.19437       -4.10903
C          0.14345        4.20260       -2.14521
H         -0.15354        4.17760       -1.08675
H          0.45633        5.22659       -2.39664
H         -0.73850        3.95260       -2.75385
B          1.48592        0.39004        1.59456
O          2.67181       -0.24956        1.96513
C          3.09383        0.22798        3.24190
C          2.60440       -0.77360        4.28445
H          1.50513       -0.81725        4.29921
H          2.98541       -1.77127        4.01977
H          2.95554       -0.52623        5.29706
C          4.60981        0.30553        3.26839
H          5.03532       -0.70649        3.19476
H          4.96713        0.75856        4.20611
H          4.99105        0.89320        2.42391
C          2.36157        1.60847        3.33846
O          1.20385        1.38484        2.53418
C          1.92501        2.00436        4.73761
H          2.79119        2.10199        5.41027
H          1.41256        2.97686        4.69965
H          1.22620        1.27386        5.16575
C          3.15779        2.73968        2.69629
H          3.46301        2.46673        1.67744
H          2.50798        3.62276        2.61317
H          4.04193        3.00959        3.29268
H         -1.57078       -5.66866        1.73319
H         -3.75549       -2.28842       -3.97742
C         -1.22890        1.69653        0.78348
C         -1.59535        0.51644        1.43099
C         -2.29420        1.95884       -0.15386
O         -2.80719        0.08610        0.94933
H         -1.32115        0.13842        2.41243
C         -3.19827        0.95164       -0.01973
H         -2.35897        2.78529       -0.85687
C         -4.46152        0.62359       -0.72516
C         -5.65248        0.40267        0.20934
H         -4.31083       -0.28681       -1.33174
H         -4.67970        1.43816       -1.43428
H         -5.36455       -0.39337        0.92129
C         -6.87788       -0.08173       -0.56313
H         -6.63232       -1.00629       -1.11305
H         -7.13751        0.67372       -1.32870
C         -8.07749       -0.30745        0.35054
H         -8.95343       -0.62368       -0.23913
H         -7.85164       -1.13966        1.04180
C         -8.40321        0.94150        1.16289
H         -9.24557        0.74653        1.84649
H         -8.73843        1.74131        0.47742
C         -7.18500        1.42847        1.94031
H         -6.91783        0.67633        2.70465
H         -7.42286        2.35435        2.48873
C         -5.98844        1.65152        1.02257
H         -6.21108        2.47948        0.32300
H         -5.10769        1.96838        1.60398
