110
Int1_comp5_7_Sub7.log	Energy: -1556351.1427992
N         -1.29766        1.98002       -0.38773
C         -2.30916        2.23462        0.45712
C         -2.97836        3.46165        0.43314
C         -2.60629        4.41852       -0.50137
C         -1.57764        4.12491       -1.39206
C         -0.94560        2.89115       -1.29536
H         -0.13359        2.59830       -1.96560
H         -1.25936        4.84006       -2.15214
H         -3.78060        3.67001        1.14055
C         -2.65862        1.14892        1.39768
N         -1.83226        0.08489        1.41232
C         -2.06837       -0.92505        2.25365
C         -3.16858       -0.94278        3.10417
C         -4.04767        0.13540        3.08151
C         -3.78312        1.19856        2.22666
H         -4.45399        2.05665        2.19585
H         -3.32556       -1.79331        3.76941
H         -1.32053       -1.72085        2.24769
Ir        -0.15684        0.10026       -0.04169
H         -1.32493        0.14008       -2.70611
B          1.15176        1.18385        1.03767
O          1.33056        2.54572        0.77645
C          1.99512        3.13686        1.88937
C          2.87818        4.27036        1.40157
H          3.56432        3.93047        0.61596
H          3.46748        4.69764        2.22755
H          2.25131        5.07002        0.97952
C          0.91028        3.67792        2.81829
H          1.32805        4.22167        3.67847
H          0.27183        4.36637        2.24494
H          0.27514        2.86078        3.19156
C          2.76051        1.91504        2.50011
O          1.92059        0.82108        2.13287
C          4.12108        1.68239        1.85225
H          4.01260        1.58802        0.76348
H          4.83611        2.48482        2.08620
H          4.53505        0.73504        2.22676
C          2.89886        1.94290        4.01210
H          1.91840        1.95229        4.50504
H          3.43423        1.04308        4.34912
H          3.47140        2.82417        4.34078
B          0.88411       -1.50786        0.64136
O          1.68765       -2.42942       -0.03867
C          2.57428       -3.03379        0.89816
C          2.87861       -4.45248        0.44813
H          1.96371       -5.04763        0.32179
H          3.39801       -4.42244       -0.52088
H          3.53009       -4.96847        1.16993
C          3.85316       -2.20100        0.89194
H          4.62277       -2.61258        1.56159
H          4.24844       -2.17545       -0.13317
H          3.63308       -1.16424        1.17844
C          1.77825       -2.92308        2.25258
O          0.87649       -1.85384        1.99468
C          2.62986       -2.54840        3.45573
H          3.08537       -1.56131        3.31198
H          1.99297       -2.49354        4.35116
H          3.41883       -3.29405        3.63961
C          0.95136       -4.16190        2.57273
H          0.32229       -4.44111        1.71937
H          1.57903       -5.02327        2.84512
H          0.28905       -3.93685        3.42225
B          1.31565        0.35154       -1.40763
O          1.03803        0.76631       -2.72201
C          2.24248        0.71363       -3.48709
C          2.30354       -0.65596       -4.15432
H          2.31789       -1.44978       -3.39420
H          1.40103       -0.78899       -4.76786
H          3.18395       -0.75710       -4.80603
C          2.20946        1.80842       -4.53778
H          1.40008        1.60605       -5.25504
H          3.15712        1.85088       -5.09665
H          2.02424        2.79265       -4.08770
C          3.33428        0.88635       -2.38030
O          2.69956        0.31233       -1.24118
C          4.63420        0.14657       -2.64309
H          5.11882        0.50541       -3.56445
H          5.32670        0.31370       -1.80487
H          4.46586       -0.93452       -2.72756
C          3.62075        2.35274       -2.06866
H          2.69435        2.88984       -1.81975
H          4.28130        2.40824       -1.19195
H          4.12342        2.86110       -2.90449
H         -3.11774        5.38306       -0.53508
H         -4.92850        0.15415        3.72702
C         -1.80072       -0.52593       -1.98500
C         -3.10879       -0.32238       -1.49037
C         -1.19090       -1.74850       -1.68329
C         -3.71670       -1.30835       -0.71857
N         -3.98177        0.74701       -1.60709
O         -0.07655       -2.15713       -2.36215
C         -1.83717       -2.74454       -0.86004
C         -3.12746       -2.52382       -0.37121
O         -4.94456       -0.84480       -0.36612
C         -5.02862        0.39402       -0.93683
C         -0.37965       -2.84614       -3.55224
N         -1.13665       -3.89929       -0.65490
H         -3.64659       -3.25108        0.25066
C         -6.27564        1.15566       -0.71226
H          0.57420       -3.16494       -3.99274
H         -0.90663       -2.19330       -4.27025
H         -1.00056       -3.73786       -3.35549
H         -6.17769        2.14041       -1.18346
H         -6.46914        1.28113        0.36452
H         -7.14440        0.63406       -1.14360
H         -0.12847       -3.78830       -0.74662
C         -1.66183       -4.97470        0.12628
H         -0.93843       -5.80052        0.14437
H         -2.59673       -5.35988       -0.31620
H         -1.88230       -4.69313        1.17482
