112
Int1_comp44_0_Sub11.log	Energy: -1465917.2921116
N          1.50335        0.31287       -1.51190
C          2.24909       -0.74513       -1.88405
C          3.31690       -0.60171       -2.77531
C          3.61174        0.65515       -3.28873
C          2.81956        1.73554       -2.90987
C          1.77257        1.51844       -2.02039
H          1.08716        2.31215       -1.71552
H          3.00335        2.73992       -3.29500
H          3.92627       -1.46303       -3.04823
C          1.87913       -2.03916       -1.28390
N          1.00396       -1.98293       -0.26147
C          0.60013       -3.11943        0.31607
C          1.06903       -4.36546       -0.07801
C          1.98188       -4.43778       -1.12825
C          2.38439       -3.25976       -1.74190
H          3.07459       -3.28799       -2.58477
H          0.71059       -5.26255        0.42946
H         -0.15581       -3.00761        1.09560
Ir         0.01756       -0.04590        0.09588
H         -0.02320        1.54192        2.38938
B         -1.48278       -0.72054       -1.10659
O         -2.80742       -0.30421       -1.15754
C         -3.45696       -0.95443       -2.25023
C         -4.89639       -1.24139       -1.86350
H         -4.94822       -1.79402       -0.91657
H         -5.40876       -1.82458       -2.64424
H         -5.44006       -0.29408       -1.73222
C         -3.40585       -0.00355       -3.44221
H         -3.92953       -0.41114       -4.31940
H         -3.88901        0.94383       -3.16257
H         -2.36524        0.22061       -3.71773
C         -2.56395       -2.22360       -2.45117
O         -1.28559       -1.75594       -2.01525
C         -2.95609       -3.37171       -1.52555
H         -3.01250       -3.02099       -0.48477
H         -3.91391       -3.82970       -1.81375
H         -2.17291       -4.14295       -1.57765
C         -2.45174       -2.70978       -3.88392
H         -2.02137       -1.93900       -4.53624
H         -1.79324       -3.59022       -3.92165
H         -3.43602       -3.00203       -4.28140
B         -1.28264       -0.62371        1.54241
O         -1.51783        0.00553        2.76220
C         -2.69636       -0.54975        3.34260
C         -2.60311       -0.45303        4.85367
H         -1.67074       -0.89502        5.22870
H         -2.61928        0.60468        5.15471
H         -3.45451       -0.95783        5.33585
C         -3.88017        0.26323        2.82694
H         -4.82790       -0.04758        3.29129
H         -3.69874        1.32249        3.05567
H         -3.96209        0.17547        1.73406
C         -2.67746       -2.00355        2.76849
O         -2.03186       -1.81145        1.50912
C         -4.04650       -2.61669        2.53563
H         -4.62695       -2.02495        1.81633
H         -3.93581       -3.63273        2.12787
H         -4.61449       -2.68673        3.47621
C         -1.80864       -2.95012        3.59122
H         -0.81763       -2.50957        3.77542
H         -2.26755       -3.19773        4.55972
H         -1.67128       -3.88703        3.03023
B         -1.10135        1.65328       -0.10399
O         -1.01948        2.45421       -1.24852
C         -1.69631        3.68936       -1.01226
C         -0.64087        4.71840       -0.61652
H         -0.10923        4.40297        0.29203
H          0.09619        4.79999       -1.43077
H         -1.07586        5.71544       -0.45389
C         -2.39116        4.11952       -2.29189
H         -1.63908        4.34163       -3.06372
H         -2.99382        5.02675       -2.13140
H         -3.04262        3.32474       -2.67642
C         -2.65996        3.31963        0.16904
O         -1.97093        2.24280        0.79944
C         -2.87165        4.42778        1.18591
H         -3.33139        5.31303        0.71974
H         -3.54585        4.07152        1.97864
H         -1.92632        4.72537        1.65756
C         -4.00561        2.78142       -0.30724
H         -3.85632        1.93943       -0.99604
H         -4.55753        2.39900        0.56339
H         -4.61580        3.55858       -0.79066
H          4.44925        0.78683       -3.97732
H          2.36492       -5.40003       -1.47458
C          0.85527        1.45324        1.75348
O          1.37327        2.62642        1.28367
C          1.84511        0.46889        1.69425
C          2.64495        2.39514        0.86550
C          3.00804        1.10126        1.10978
H          1.82291       -0.47476        2.23334
C          3.34729        3.54531        0.24708
C          4.33289        0.46561        0.79504
H          2.67946        4.07648       -0.44807
H          4.22903        3.20491       -0.31173
H          3.67966        4.27638        1.00334
H          4.52772        0.61646       -0.28607
C          4.33610       -1.04209        1.04669
H          3.49901       -1.51722        0.51780
H          4.16051       -1.22248        2.12272
C          5.65789       -1.67826        0.63849
H          5.63547       -2.76267        0.83436
H          5.78976       -1.56275       -0.45357
C          6.83373       -1.02894        1.36026
H          7.78735       -1.46381        1.01888
H          6.75882       -1.25313        2.43972
C          6.83701        0.48351        1.16565
H          7.04161        0.71110        0.10321
H          7.65585        0.94348        1.74246
C          5.50139        1.10746        1.55658
H          5.32525        0.97577        2.63923
H          5.52306        2.19395        1.38079
