123
Int1_comp152_9_Sub11.log	Energy: -1598356.1141169
N          1.14628        0.55246        1.77789
C          0.81665        1.60037        2.55419
C          1.60268        1.94811        3.65856
C          2.72493        1.18923        3.96218
C          3.02576        0.08288        3.17007
C          2.20228       -0.20255        2.08953
H          2.36570       -1.07108        1.44964
H          3.88303       -0.55732        3.38303
H          1.32849        2.79632        4.28489
C         -0.44383        2.29001        2.21387
N         -1.18749        1.70837        1.25509
C         -2.40151        2.19134        0.97104
C         -2.92088        3.30865        1.61260
C         -2.14025        3.95586        2.56644
C         -0.88991        3.43770        2.87593
H         -0.26215        3.92552        3.62094
H         -3.91387        3.67189        1.34471
H         -2.95085        1.64935        0.19694
Ir        -0.22476        0.03106        0.14819
H          1.88455        0.60451       -1.59227
B         -0.93542       -1.41989        1.39360
O         -0.24360       -1.80966        2.53241
C         -1.06766       -2.68651        3.29974
C         -0.19197       -3.74372        3.94642
H          0.43250       -4.24804        3.19808
H         -0.79971       -4.49716        4.47086
H          0.47564       -3.27045        4.68181
C         -1.75451       -1.83776        4.36538
H         -2.35590       -2.44472        5.05819
H         -0.98226       -1.30999        4.94420
H         -2.40487       -1.08187        3.90103
C         -2.06300       -3.22730        2.22136
O         -2.12510       -2.12823        1.30774
C         -1.50358       -4.41681        1.44767
H         -0.49268       -4.19106        1.08002
H         -1.48011       -5.33260        2.05675
H         -2.14398       -4.59498        0.57141
C         -3.45851       -3.53155        2.73315
H         -3.94301       -2.63436        3.13966
H         -4.08244       -3.90825        1.90912
H         -3.42955       -4.30471        3.51639
B         -1.78555       -0.63848       -0.99621
O         -1.85089       -1.80322       -1.74855
C         -3.04791       -1.81718       -2.52240
C         -2.68621       -1.33632       -3.92463
H         -2.30883       -0.30328       -3.90168
H         -1.88451       -1.97546       -4.32038
H         -3.54202       -1.38169       -4.61408
C         -3.57933       -3.23857       -2.57903
H         -4.55265       -3.28032       -3.09176
H         -2.87376       -3.87433       -3.13418
H         -3.69080       -3.65699       -1.57064
C         -3.96166       -0.80666       -1.74792
O         -2.99531        0.05071       -1.13428
C         -4.76119       -1.46393       -0.62828
H         -4.09354       -2.03399        0.03133
H         -5.23350       -0.67515       -0.02385
H         -5.55351       -2.11983       -1.01814
C         -4.88066        0.02546       -2.62479
H         -4.32419        0.60572       -3.37207
H         -5.60528       -0.61455       -3.15125
H         -5.44503        0.73258       -1.99887
B          0.75938       -1.51581       -0.72988
O          1.30657       -1.49239       -2.01549
C          1.77226       -2.79970       -2.35244
C          0.64691       -3.51433       -3.09241
H         -0.24885       -3.58208       -2.46056
H          0.38129       -2.91989       -3.97864
H          0.94798       -4.51845       -3.42551
C          2.99133       -2.67748       -3.24808
H          2.70085       -2.21714       -4.20373
H          3.42535       -3.66597       -3.46335
H          3.76484       -2.04519       -2.79364
C          2.05185       -3.41575       -0.94146
O          1.11769       -2.71939       -0.11721
C          1.79624       -4.90802       -0.83297
H          2.44855       -5.47212       -1.51735
H          2.00485       -5.24601        0.19309
H          0.75090       -5.14973       -1.06235
C          3.44780       -3.08513       -0.41913
H          3.65563       -2.00857       -0.51081
H          3.49850       -3.35458        0.64631
H          4.23511       -3.63713       -0.95296
H          3.34964        1.45009        4.81914
H         -2.50148        4.85578        3.06899
C          1.21109        1.39384       -1.26804
C          1.71938        2.52117       -0.53283
C         -0.06578        1.46915       -1.83757
N          1.02817        3.61344       -0.33787
C          3.10356        2.49788        0.06782
C         -0.81015        2.68596       -1.66567
H         -0.34934        0.76385       -2.61985
C         -0.22073        3.71841       -0.88593
C          4.08530        1.46327       -0.46482
H          2.98602        2.35734        1.15602
H          3.51900        3.51268       -0.04455
C         -2.08160        2.90442       -2.23109
C         -0.93458        4.92025       -0.68620
C         -2.75653        4.08871       -2.01554
H         -2.53840        2.10607       -2.81735
C         -2.19141        5.11998       -1.22930
H         -0.44981        5.68790       -0.07871
H         -3.74739        4.23364       -2.45564
C         -2.95585        6.38878       -0.99000
H         -3.24637        6.86764       -1.93866
H         -2.36433        7.11218       -0.41180
H         -3.88757        6.19225       -0.43356
H          3.59753        0.47025       -0.42901
C          5.32876        1.37888        0.42060
H          5.03013        1.15602        1.45830
H          5.81590        2.37162        0.44589
C          6.32030        0.33740       -0.08464
H          7.21414        0.31357        0.56007
H          5.85803       -0.66422       -0.01117
C          6.71507        0.59949       -1.53404
H          7.39572       -0.18808       -1.89679
H          7.28052        1.54772       -1.58755
C          5.48708        0.69995       -2.43174
H          4.98737       -0.28423       -2.47567
H          5.78371        0.93912       -3.46577
C          4.49518        1.73474       -1.91370
H          4.95291        2.74047       -1.96039
H          3.60739        1.77257       -2.56474
