105
Int1_comp44_5_Sub21.log	Energy: -1392716.7582306
N         -0.89957       -2.10689        0.66987
C         -1.93890       -2.58439       -0.03560
C         -2.42975       -3.87505        0.19120
C         -1.82479       -4.67521        1.15061
C         -0.72790       -4.17528        1.84914
C         -0.29494       -2.88628        1.56925
H          0.57985       -2.45273        2.05718
H         -0.20497       -4.77362        2.59674
H         -3.27050       -4.25736       -0.38689
C         -2.47271       -1.69259       -1.08515
N         -1.81653       -0.53070       -1.26263
C         -2.20123        0.30671       -2.23160
C         -3.27026        0.02474       -3.07473
C         -3.97078       -1.16560       -2.89359
C         -3.56685       -2.03445       -1.88821
H         -4.10015       -2.97097       -1.72822
H         -3.54498        0.73441       -3.85671
H         -1.60130        1.21755       -2.32096
Ir        -0.14872       -0.10086        0.15525
H         -0.50685        2.28880        1.63249
B          1.29287       -1.03676       -0.94645
O          2.18117       -0.48321       -1.86021
C          3.17315       -1.46028       -2.18375
C          3.61888       -1.25970       -3.62068
H          2.76356       -1.24375       -4.30858
H          4.31124       -2.05656       -3.93370
H          4.14482       -0.29792       -3.71343
C          4.34272       -1.24897       -1.22752
H          5.17823       -1.93287       -1.43887
H          4.70238       -0.21562       -1.33839
H          4.01205       -1.37477       -0.18709
C          2.40542       -2.79612       -1.91190
O          1.49102       -2.41351       -0.88675
C          1.57320       -3.25248       -3.10720
H          0.95908       -2.42448       -3.49095
H          2.19637       -3.64045       -3.92661
H          0.89439       -4.05229       -2.77605
C          3.26789       -3.93670       -1.40335
H          3.74898       -3.67270       -0.45296
H          2.64100       -4.82436       -1.23084
H          4.04657       -4.20405       -2.13441
B          0.65871        1.57600       -0.67751
O          1.70834        2.35528       -0.20177
C          2.08951        3.30329       -1.19702
C          2.54711        4.58116       -0.51562
H          1.79616        4.95107        0.19450
H          3.47222        4.38721        0.04671
H          2.75712        5.37051       -1.25394
C          3.23652        2.69188       -1.99517
H          3.62289        3.38289       -2.75909
H          4.05446        2.45129       -1.29998
H          2.91680        1.75219       -2.46542
C          0.77396        3.44151       -2.03548
O          0.16369        2.16511       -1.84866
C          0.98539        3.67621       -3.52019
H          1.53540        2.84348       -3.97632
H          0.01152        3.75786       -4.02624
H          1.54052        4.60990       -3.69941
C         -0.17856        4.48974       -1.46714
H         -0.32416        4.34171       -0.38730
H          0.18506        5.51428       -1.63380
H         -1.15616        4.38652       -1.96151
B          1.32775        0.12601        1.52175
O          2.51669       -0.60134        1.61211
C          3.14387       -0.33963        2.86650
C          2.75370       -1.47253        3.81207
H          1.66763       -1.47822        3.98812
H          3.03211       -2.42983        3.34676
H          3.26236       -1.39819        4.78451
C          4.64986       -0.31845        2.67539
H          5.00304       -1.32133        2.39230
H          5.16325       -0.02553        3.60429
H          4.93773        0.37745        1.87743
C          2.51197        1.03373        3.27401
O          1.24049        0.97640        2.62764
C          2.30255        1.22363        4.76568
H          3.26013        1.18725        5.30790
H          1.84509        2.20698        4.94890
H          1.63254        0.45967        5.18127
C          3.27054        2.22276        2.69384
H          3.40770        2.10107        1.61124
H          2.66805        3.13037        2.84385
H          4.24598        2.36577        3.18199
H         -2.19672       -5.68445        1.33994
H         -4.82247       -1.41779       -3.52927
C         -1.35823        1.70359        1.29311
C         -1.73380        0.47163        1.82729
C         -2.51106        2.16391        0.55830
O         -3.02980        0.19286        1.47081
H         -1.36194       -0.06038        2.69898
C         -3.47139        1.20918        0.68756
H         -2.59756        3.08277       -0.01586
C         -4.83901        1.06626        0.13093
C         -5.92151        0.81008        1.18744
H         -4.84579        0.23502       -0.59587
H         -5.07399        1.97991       -0.43896
H         -5.61292       -0.09098        1.74660
C         -6.02512        1.96535        2.17435
H         -6.77079        1.75491        2.95648
H         -5.06107        2.16025        2.66791
H         -6.33083        2.89298        1.66151
C         -7.25816        0.52141        0.51725
H         -7.18706       -0.33534       -0.17152
H         -8.03796        0.29309        1.26006
H         -7.60154        1.39126       -0.06773
