99
Int1_comp59_2_Sub9.log	Energy: -2021110.1638508
N          1.27581        1.52888       -1.70888
C          1.68550        2.74692       -1.31601
C          2.51738        3.52075       -2.13324
C          2.91769        3.02404       -3.36616
C          2.47523        1.76331       -3.76031
C          1.65522        1.05123       -2.89535
H          1.27551        0.05926       -3.14953
H          2.75988        1.33110       -4.72073
H          2.85575        4.50321       -1.80602
C          1.22403        3.19485        0.01536
N          0.48473        2.31491        0.71596
C          0.06471        2.63361        1.94311
C          0.34431        3.86452        2.52781
C          1.08589        4.79425        1.80708
C          1.53690        4.45283        0.53824
H          2.12299        5.16495       -0.04151
H         -0.02408        4.08216        3.53140
H         -0.49445        1.85003        2.46092
Ir         0.14303        0.31639       -0.24841
H         -1.47323        0.58944       -2.55130
B          1.93395       -0.32574        0.47106
O          3.12087       -0.07140       -0.20898
C          4.21391       -0.32274        0.67423
C          5.38146       -0.86801       -0.12667
H          5.08112       -1.74300       -0.71719
H          6.21646       -1.15347        0.53154
H          5.74263       -0.09715       -0.82360
C          4.58521        1.01351        1.31204
H          5.47095        0.93580        1.95960
H          4.80154        1.73557        0.51067
H          3.74694        1.40777        1.90562
C          3.58683       -1.32859        1.69643
O          2.21038       -0.93903        1.68212
C          3.65700       -2.77475        1.21866
H          3.24390       -2.86116        0.20487
H          4.68506       -3.16538        1.23979
H          3.03478       -3.39568        1.87892
C          4.11591       -1.21199        3.11415
H          3.92517       -0.21584        3.53386
H          3.61354       -1.95023        3.75666
H          5.19803       -1.41169        3.14967
B         -0.56500       -0.75106        1.33861
O         -1.02003       -2.06699        1.36833
C         -1.20114       -2.47671        2.72489
C         -2.37036       -3.44210        2.79880
H         -3.28132       -3.01642        2.35749
H         -2.12463       -4.35944        2.24375
H         -2.58494       -3.72307        3.84129
C          0.08704       -3.16956        3.15600
H          0.02047       -3.56951        4.17851
H          0.28034       -4.00325        2.46505
H          0.93430       -2.47434        3.08088
C         -1.43142       -1.10808        3.45400
O         -0.73253       -0.19442        2.60785
C         -0.84259       -1.02927        4.85154
H          0.24538       -1.16910        4.82843
H         -1.04876       -0.03938        5.28542
H         -1.28651       -1.78909        5.51288
C         -2.89510       -0.67718        3.48117
H         -3.35222       -0.72753        2.48246
H         -3.49483       -1.29342        4.16674
H         -2.95125        0.36857        3.81723
B          0.17033       -1.47745       -1.17981
O         -0.65728       -1.83702       -2.25761
C         -0.52343       -3.24601       -2.48614
C         -1.59421       -3.94676       -1.65420
H         -1.46097       -3.71965       -0.58592
H         -2.58715       -3.58246       -1.95758
H         -1.57614       -5.03682       -1.79867
C         -0.72645       -3.53067       -3.96188
H         -1.76332       -3.29560       -4.24386
H         -0.54528       -4.59301       -4.18655
H         -0.06008       -2.92077       -4.58578
C          0.92037       -3.51855       -1.94901
O          1.05468       -2.52416       -0.93873
C          1.11879       -4.88750       -1.32236
H          0.91416       -5.69092       -2.04674
H          2.15968       -4.99166       -0.98223
H          0.46622       -5.01864       -0.44998
C          2.00216       -3.25900       -2.99384
H          1.85945       -2.28050       -3.47505
H          2.98084       -3.24328       -2.49257
H          2.02118       -4.03408       -3.77410
H          3.56934        3.61583       -4.01254
H          1.31648        5.77581        2.22676
C         -1.66421        1.19762       -1.66552
C         -1.62547        2.63085       -1.65537
C         -2.30152        0.64929       -0.54264
C         -2.21763        3.14606       -0.54384
H         -1.14950        3.24540       -2.41875
C         -2.99478       -0.67732       -0.55439
S         -2.87562        1.93700        0.51153
Cl        -2.23901        4.79400       -0.06987
H         -2.45887       -1.30741       -1.27604
C         -4.43963       -0.62794       -0.97667
H         -2.94442       -1.20049        0.40805
F         -5.22384       -0.05258       -0.05419
F         -4.90479       -1.87268       -1.15946
F         -4.61973        0.03635       -2.12120
