117
Int1_comp23_0_Sub20.log	Energy: -1535967.1185504
N         -2.42588       -1.12675       -1.73878
C         -2.78119       -2.41364       -1.56889
C         -3.94023       -2.92619       -2.16072
C         -4.73966       -2.09253       -2.93150
C         -4.36871       -0.75871       -3.08142
C         -3.20552       -0.31770       -2.46252
H         -2.88751        0.72645       -2.50398
H         -4.97224       -0.05963       -3.66261
H         -4.22794       -3.96516       -2.00216
C         -1.90388       -3.22417       -0.69930
N         -0.95845       -2.55315       -0.01533
C         -0.14887       -3.21611        0.81254
C         -0.22224       -4.59464        0.98284
C         -1.17679       -5.30612        0.26427
C         -2.03269       -4.61109       -0.58213
H         -2.78557       -5.14766       -1.15900
H          0.46925       -5.09307        1.66369
H          0.55975       -2.59571        1.36419
Ir        -0.75808       -0.37200       -0.47598
H          1.17307        0.71645       -2.36416
B         -2.08622        0.18560        0.91034
O         -3.25362       -0.54833        1.10611
C         -3.81605       -0.15463        2.35879
C         -5.32547       -0.28374        2.28966
H         -5.73163        0.26306        1.42885
H         -5.79845        0.09732        3.20793
H         -5.60036       -1.34313        2.17818
C         -3.24116       -1.09227        3.41724
H         -3.66558       -0.90565        4.41482
H         -3.47176       -2.12839        3.12884
H         -2.14622       -0.99312        3.46512
C         -3.28244        1.30815        2.50332
O         -2.02741        1.22914        1.82571
C         -4.13861        2.32475        1.75591
H         -4.29641        2.01011        0.71470
H         -5.11240        2.48245        2.24270
H         -3.60192        3.28372        1.73115
C         -3.05127        1.76224        3.93291
H         -2.31743        1.12479        4.44282
H         -2.66579        2.79241        3.93727
H         -3.99051        1.74723        4.50728
B          0.49854        0.16020        1.03214
O          1.35695        1.23852        1.18619
C          1.80365        1.31026        2.53855
C          3.24224        1.79475        2.56182
H          3.87962        1.16474        1.92925
H          3.29029        2.82269        2.17358
H          3.64318        1.79711        3.58731
C          0.90178        2.30583        3.26133
H          1.19316        2.44056        4.31360
H          0.97797        3.27843        2.75480
H         -0.14661        1.98327        3.20343
C          1.60869       -0.16216        3.03841
O          0.56157       -0.63006        2.19446
C          1.16959       -0.29225        4.48631
H          0.21146        0.21535        4.65628
H          1.03959       -1.35536        4.73867
H          1.92066        0.13207        5.17040
C          2.82564       -1.04388        2.77720
H          3.15110       -0.95874        1.73066
H          3.67016       -0.78841        3.43440
H          2.55411       -2.09327        2.96807
B         -0.80850        1.58532       -0.99373
O          0.25528        2.41050       -1.36956
C         -0.19532        3.76207       -1.39147
C          0.02354        4.33099        0.00739
H         -0.57113        3.77498        0.74653
H          1.08208        4.20159        0.27301
H         -0.23036        5.39998        0.06444
C          0.61169        4.54119       -2.41337
H          1.65889        4.60541       -2.08290
H          0.22611        5.56638       -2.52506
H          0.59994        4.05016       -3.39537
C         -1.70938        3.58537       -1.73358
O         -1.99777        2.32004       -1.13880
C         -2.62595        4.63911       -1.13978
H         -2.37602        5.64111       -1.52162
H         -3.66937        4.41968       -1.41126
H         -2.55943        4.65151       -0.04498
C         -1.96004        3.45686       -3.23359
H         -1.29418        2.70220       -3.67794
H         -3.00057        3.13683       -3.39572
H         -1.81165        4.40980       -3.76253
H         -5.64988       -2.47751       -3.39638
H         -1.25746       -6.39127        0.35862
C          1.44169       -0.29855       -2.07203
C          0.69176       -1.41294       -2.47540
C          2.65807       -0.55855       -1.41177
C          1.15392       -2.71835       -2.17317
H         -0.18232       -1.29289       -3.11694
C          2.99476       -1.91089       -1.19019
C          3.74614        0.25437       -0.94601
N          2.27927       -2.98354       -1.53019
H          0.55782       -3.58275       -2.48859
N          4.23017       -1.92261       -0.61334
C          4.71370       -0.62671       -0.47938
C          3.71258        1.74876       -1.07172
H          4.72757       -2.76653       -0.36999
C          6.14215       -0.46752        0.00450
C          4.13115        2.24573       -2.45295
H          4.32951        2.22668       -0.30142
H          2.67722        2.06190       -0.86450
H          4.03860        3.34095       -2.52640
H          3.49984        1.80456       -3.23959
H          5.17465        1.97725       -2.68464
C          6.52947        0.99365        0.22475
H          7.57552        1.04460        0.56425
H          6.44970        1.58058       -0.70047
H          5.90432        1.46899        0.99355
C          6.34186       -1.22158        1.32809
H          6.11969       -2.29633        1.23834
H          7.38799       -1.13298        1.66019
H          5.69459       -0.81217        2.11653
C          7.07819       -1.05999       -1.06412
H          8.12958       -0.97024       -0.74723
H          6.87178       -2.12591       -1.24484
H          6.95789       -0.53045       -2.02103
