104
Int1_comp98_5_Sub14.log	Energy: -1379506.4355157
N         -2.10007       -0.08634       -1.52915
C         -3.15468       -0.80887       -1.11450
C         -4.44129       -0.54134       -1.59207
C         -4.62594        0.48014       -2.51530
C         -3.51922        1.20726       -2.94741
C         -2.27174        0.88879       -2.42428
H         -1.36290        1.42377       -2.71640
H         -3.61506        2.01496       -3.67477
H         -5.29488       -1.12291       -1.24478
C         -2.85889       -1.88566       -0.14340
N         -1.57169       -2.00192        0.23829
C         -1.22130       -2.94614        1.11729
C         -2.14646       -3.83371        1.65764
C         -3.47995       -3.73060        1.27129
C         -3.84050       -2.74336        0.36173
H         -4.87971       -2.64145        0.05021
H         -1.81778       -4.58619        2.37636
H         -0.16753       -2.94067        1.41174
Ir        -0.21099       -0.35015       -0.39675
H          0.69310       -0.69990       -3.16837
B         -0.94057        0.77236        1.08374
O         -2.11819        1.50136        0.92560
C         -2.59781        1.86410        2.21970
C         -3.28373        3.21459        2.13466
H         -2.62240        3.96707        1.68675
H         -3.59605        3.56490        3.13047
H         -4.18046        3.13388        1.50237
C         -3.59614        0.78835        2.64078
H         -4.07966        1.01940        3.60136
H         -4.37511        0.71262        1.86741
H         -3.10211       -0.19154        2.72125
C         -1.28650        1.84015        3.07650
O         -0.51203        0.84906        2.39828
C         -0.51243        3.15175        3.00844
H         -0.33779        3.43588        1.96247
H         -1.03101        3.96489        3.53741
H          0.47274        3.00576        3.47378
C         -1.47548        1.41165        4.52030
H         -1.88533        0.39565        4.58765
H         -0.50334        1.41642        5.03502
H         -2.14635        2.10283        5.05362
B          1.36407       -0.61374        0.86175
O          2.55630        0.09970        0.91585
C          3.24537       -0.20645        2.12535
C          4.73949       -0.20144        1.85315
H          5.00063       -0.88317        1.03319
H          5.05356        0.81295        1.56530
H          5.30812       -0.49275        2.74968
C          2.88512        0.89009        3.12345
H          3.41553        0.77377        4.08027
H          3.15732        1.86102        2.68421
H          1.80066        0.89901        3.29847
C          2.65260       -1.60997        2.51265
O          1.38719       -1.60241        1.84894
C          2.41310       -1.80149        4.00131
H          1.69940       -1.06207        4.38612
H          1.99349       -2.80298        4.18031
H          3.35288       -1.72132        4.56916
C          3.45996       -2.77762        1.95718
H          3.60447       -2.67830        0.87163
H          4.43759       -2.87187        2.45286
H          2.89863       -3.70814        2.13416
B          0.65435        1.40229       -0.90364
O          0.96818        1.77826       -2.22215
C          1.56710        3.07908       -2.20522
C          3.08086        2.90146       -2.15324
H          3.37632        2.35812       -1.24422
H          3.40738        2.31433       -3.02346
H          3.60441        3.86833       -2.17761
C          1.16978        3.82019       -3.46854
H          1.59881        3.31222       -4.34501
H          1.54710        4.85437       -3.45580
H          0.07921        3.84851       -3.59413
C          0.99789        3.67863       -0.87782
O          0.82813        2.51468       -0.07822
C          1.92620        4.64216       -0.15928
H          2.16404        5.51282       -0.78995
H          1.43969        5.00765        0.75707
H          2.86088        4.14771        0.13367
C         -0.37707        4.31793       -1.06082
H         -1.06778        3.63191       -1.57170
H         -0.80414        4.53152       -0.07077
H         -0.32449        5.25993       -1.62641
H         -5.62537        0.70453       -2.89426
H         -4.23559       -4.40688        1.67699
C          0.90633       -1.58292       -2.56089
C         -0.00963       -2.64090       -2.47665
C          2.18429       -1.71957       -1.97305
C          0.37096       -3.76147       -1.72471
C         -1.29815       -2.63788       -3.23900
N          2.52967       -2.81107       -1.28903
C          3.22935       -0.65723       -2.14266
C          1.63445       -3.78548       -1.15157
H         -0.30693       -4.61019       -1.60636
H         -1.23968       -3.36170       -4.06789
H         -1.52110       -1.65147       -3.66400
H         -2.14222       -2.94491       -2.60355
H          3.30929       -0.13818       -1.17356
H          2.86157        0.08627       -2.86099
C          4.58895       -1.20515       -2.54929
H          1.95007       -4.65152       -0.55702
H          4.93898       -1.94899       -1.81954
H          5.33246       -0.39546       -2.60355
H          4.55217       -1.69786       -3.53408
