117
Int1_comp98_2_Sub19.log	Energy: -1502009.4727644
N          0.00728        2.20590        1.16318
C          0.85561        3.02874        0.52230
C          1.08959        4.32561        0.98962
C          0.43469        4.76715        2.13241
C         -0.44364        3.90359        2.78151
C         -0.62731        2.63022        2.25660
H         -1.30655        1.91159        2.71870
H         -0.98443        4.20632        3.67940
H          1.77316        4.98983        0.46192
C          1.49157        2.48534       -0.69764
N          1.08218        1.26260       -1.08311
C          1.58126        0.71835       -2.19658
C          2.52599        1.37087       -2.98244
C          2.97306        2.62764       -2.58690
C          2.44841        3.19161       -1.43061
H          2.78709        4.17272       -1.09977
H          2.90290        0.88948       -3.88620
H          1.17071       -0.26055       -2.46014
Ir        -0.44245        0.25447        0.19593
H          0.66225       -0.93509        2.63056
B         -2.04846        1.05409       -0.66749
O         -2.53246        2.29963       -0.27497
C         -3.45624        2.75675       -1.26103
C         -4.55056        3.55697       -0.57928
H         -5.01698        2.97890        0.22867
H         -5.32971        3.85726       -1.29675
H         -4.12042        4.46889       -0.13899
C         -2.67510        3.64298       -2.22767
H         -3.32233        4.10316       -2.98883
H         -2.18864        4.44456       -1.65234
H         -1.88834        3.06518       -2.73505
C         -3.93055        1.41546       -1.91764
O         -2.78176        0.58210       -1.74530
C         -5.08630        0.76741       -1.16338
H         -4.83812        0.66921       -0.09831
H         -6.02234        1.33301       -1.28194
H         -5.24072       -0.24750       -1.55701
C         -4.25101        1.50830       -3.39852
H         -3.37489        1.82201       -3.98060
H         -4.56607        0.52156       -3.76914
H         -5.07266        2.21796       -3.58149
B         -0.88461       -1.35973       -0.94885
O         -1.61890       -2.50037       -0.60944
C         -1.94966       -3.22568       -1.79293
C         -1.98261       -4.71006       -1.47506
H         -1.04816       -5.04616       -1.00684
H         -2.80446       -4.91787       -0.77394
H         -2.15469       -5.30510       -2.38520
C         -3.32867       -2.74752       -2.23610
H         -3.69414       -3.29454       -3.11783
H         -4.03414       -2.90608       -1.40724
H         -3.30467       -1.66972       -2.44764
C         -0.80993       -2.78753       -2.77486
O         -0.46069       -1.49825       -2.27656
C         -1.24034       -2.65312       -4.22508
H         -2.02440       -1.89321       -4.33287
H         -0.38165       -2.34303       -4.83935
H         -1.61329       -3.61079       -4.61995
C          0.43326       -3.66675       -2.67568
H          0.75083       -3.77774       -1.62977
H          0.26969       -4.66716       -3.10270
H          1.25352       -3.18574       -3.22921
B         -1.82529       -0.55853        1.42705
O         -1.52196       -1.20691        2.63475
C         -2.69562       -1.86666        3.11508
C         -2.66402       -3.29645        2.58394
H         -2.64712       -3.29459        1.48485
H         -1.74045       -3.78093        2.93342
H         -3.51948       -3.88876        2.94094
C         -2.67896       -1.86705        4.63280
H         -1.84121       -2.48287        4.99222
H         -3.61074       -2.29082        5.03820
H         -2.54869       -0.85403        5.03529
C         -3.83465       -1.01068        2.46742
O         -3.21222       -0.53161        1.28112
C         -5.08218       -1.79084        2.09105
H         -5.53721       -2.26560        2.97412
H         -5.82503       -1.11113        1.64792
H         -4.85177       -2.56586        1.34912
C         -4.21290        0.20645        3.30782
H         -3.31645        0.76654        3.61205
H         -4.83585        0.87689        2.69792
H         -4.77649       -0.06882        4.21157
H          0.60643        5.77787        2.50884
H          3.72269        3.16647       -3.17056
C          1.46187       -0.85814        1.89047
C          2.27331        0.27804        1.81596
C          1.77126       -1.95278        1.06376
N          3.30321        0.41282        0.98781
H          2.07871        1.12012        2.48910
C          1.03106       -3.24574        1.19244
C          2.84048       -1.79230        0.17634
C          3.57899       -0.60563        0.16408
H          0.94225       -3.53173        2.25063
H          1.54275       -4.05504        0.65298
H          0.00912       -3.14601        0.79669
H          3.12255       -2.60981       -0.49199
C          4.76656       -0.42269       -0.73866
H          4.58313        0.46293       -1.36836
H          4.86366       -1.28785       -1.41539
C          6.06928       -0.20851        0.03207
H          5.88461        0.63194        0.72647
C          7.21303        0.18487       -0.90076
H          6.93816        1.09184       -1.46579
H          7.35475       -0.61612       -1.65105
C          8.51929        0.40420       -0.14535
H          9.33094        0.65511       -0.84785
H          8.40558        1.27692        0.52302
C          8.89344       -0.81659        0.68854
H          9.81759       -0.62521        1.25812
H          9.11510       -1.66240        0.01207
C          7.75859       -1.21219        1.62702
H          7.61057       -0.41181        2.37441
H          8.02584       -2.11888        2.19398
C          6.45471       -1.42874        0.86731
H          6.56337       -2.30045        0.19385
H          5.63989       -1.67793        1.56632
