108
Int1_comp73_6_Sub13.log	Energy: -1667038.2928798
N          0.71094        2.46756       -0.63560
C          0.02575        3.43026        0.01098
C          0.43077        4.76794       -0.06338
C          1.54725        5.10439       -0.81400
C          2.25142        4.09180       -1.46383
C          1.80147        2.78504       -1.34061
H          2.32639        1.93986       -1.79346
H          3.14288        4.30475       -2.05585
H         -0.11706        5.53878        0.47760
C         -1.11779        2.98710        0.83264
N         -1.26877        1.65661        0.96471
C         -2.24483        1.17358        1.73782
C         -3.14146        1.99527        2.40662
C         -3.01635        3.37442        2.25875
C         -1.99041        3.87634        1.46961
H         -1.87636        4.95210        1.33934
H         -3.92966        1.55338        3.01715
H         -2.28580        0.08763        1.82182
Ir         0.05637        0.41740       -0.28935
H         -0.38023        0.80734       -3.01778
B          1.60224        0.34437        1.06978
O          2.44309       -0.71040        1.39776
C          3.54595       -0.19523        2.14709
C          4.00090       -1.23500        3.15430
H          3.17396       -1.56439        3.79595
H          4.80320       -0.83676        3.79442
H          4.39368       -2.11619        2.62576
C          4.66641        0.10098        1.15546
H          5.57997        0.45098        1.65838
H          4.89929       -0.82062        0.60388
H          4.34686        0.84893        0.41648
C          2.93106        1.09895        2.77158
O          1.97953        1.48029        1.77495
C          2.14627        0.81875        4.04941
H          1.43409       -0.00395        3.88941
H          2.80362        0.57144        4.89609
H          1.56757        1.71734        4.30870
C          3.91057        2.23771        2.98206
H          4.36314        2.55362        2.03316
H          3.38315        3.10311        3.40992
H          4.71232        1.94738        3.67849
B         -0.24344       -1.36155        0.70150
O         -0.27728       -2.66677        0.23226
C         -0.16111       -3.57142        1.33337
C         -1.01062       -4.79908        1.05367
H         -2.05969       -4.53708        0.86672
H         -0.62611       -5.31043        0.15917
H         -0.97109       -5.50676        1.89588
C          1.30878       -3.96868        1.43072
H          1.49131       -4.67636        2.25264
H          1.60345       -4.45259        0.48906
H          1.93759       -3.07710        1.56460
C         -0.64173       -2.70180        2.55322
O         -0.43594       -1.37062        2.08619
C          0.16369       -2.90195        3.82630
H          1.22218       -2.66653        3.66411
H         -0.21845       -2.23213        4.61085
H          0.08207       -3.93740        4.19080
C         -2.12627       -2.84616        2.86147
H         -2.72825       -2.67457        1.96153
H         -2.37561       -3.83758        3.26709
H         -2.40717       -2.08783        3.60752
B          1.32919       -0.56999       -1.52009
O          2.68844       -0.28081       -1.69282
C          3.16675       -0.94565       -2.86330
C          3.11646        0.05635       -4.01319
H          2.08474        0.38965       -4.19994
H          3.71872        0.93803       -3.74667
H          3.52114       -0.36266       -4.94607
C          4.59639       -1.39882       -2.63007
H          5.24798       -0.52118       -2.50521
H          4.97025       -1.98422       -3.48424
H          4.67689       -2.00886       -1.72177
C          2.12622       -2.10249       -3.02630
O          0.95199       -1.52303       -2.46073
C          1.83961       -2.51349       -4.45844
H          2.75095       -2.87933       -4.95619
H          1.09790       -3.32556       -4.46513
H          1.42839       -1.67930       -5.04181
C          2.47619       -3.32330       -2.18223
H          2.71559       -3.02360       -1.15233
H          1.59546       -3.97946       -2.13959
H          3.32247       -3.88848       -2.60013
H          1.87298        6.14470       -0.88059
H         -3.71123        4.05565        2.75475
C         -1.13568        0.83728       -2.23320
S         -2.17997        2.25430       -2.18776
C         -1.73916       -0.29708       -1.66764
C         -3.41003        1.36726       -1.32659
C         -3.07564        0.00279       -1.16816
H         -1.39739       -1.30061       -1.91809
C         -4.61042        1.89911       -0.85315
C         -4.02817       -0.88138       -0.61316
C         -5.50935        1.03227       -0.24915
H         -4.83544        2.96151       -0.96603
C         -5.22665       -0.33676       -0.14963
C         -3.76287       -2.37286       -0.61847
H         -6.46001        1.41454        0.13063
H         -5.97765       -0.99252        0.29324
H         -2.72810       -2.51794       -0.26172
C         -4.70612       -3.17155        0.27296
H         -4.38350       -4.22271        0.32305
H         -4.74540       -2.78183        1.30074
H         -5.73292       -3.16857       -0.12637
C         -3.82635       -2.92118       -2.04890
H         -3.13790       -2.39456       -2.72361
H         -3.56135       -3.98998       -2.06343
H         -4.84394       -2.81386       -2.45733
