99
Int1_comp163_0_Sub6.log	Energy: -1670711.7267978
N         -1.54696       -1.91114        0.03354
C         -2.68790       -1.85094       -0.67567
C         -3.50686       -2.97518       -0.82335
C         -3.12744       -4.17463       -0.23367
C         -1.93402       -4.22485        0.48224
C         -1.17501       -3.06577        0.58781
H         -0.22852       -3.04728        1.13027
H         -1.58941       -5.14595        0.95447
H         -4.42338       -2.91825       -1.40990
C         -2.98014       -0.55480       -1.32391
N         -1.98855        0.35482       -1.28460
C         -2.13124        1.52156       -1.91982
C         -3.29992        1.85615       -2.59579
C         -4.35207        0.94411       -2.60672
C         -4.18856       -0.28006       -1.97003
H         -4.99962       -1.00753       -1.96004
H         -3.37764        2.82409       -3.09309
H         -1.26405        2.18707       -1.87116
Ir        -0.27895       -0.09026        0.06613
H         -1.01745       -0.12680        2.90039
B          0.98393       -0.96155       -1.21849
O          0.90485       -2.32585       -1.49306
C          1.68735       -2.60017       -2.65410
C          2.30062       -3.98190       -2.52068
H          2.85756       -4.07837       -1.57987
H          2.98057       -4.19793       -3.35906
H          1.50374       -4.74057       -2.52253
C          0.74192       -2.55461       -3.85141
H          1.24554       -2.82517       -4.79115
H         -0.07856       -3.26645       -3.67767
H          0.30266       -1.55219       -3.96182
C          2.71465       -1.41684       -2.64778
O          1.97069       -0.38288       -1.99981
C          3.94366       -1.71022       -1.79457
H          3.64257       -2.02832       -0.78810
H          4.58798       -2.47427       -2.25405
H          4.52796       -0.78560       -1.68275
C          3.13344       -0.92766       -4.02265
H          2.27361       -0.56120       -4.59790
H          3.84464       -0.09534       -3.91466
H          3.62996       -1.72751       -4.59355
B          0.86453        1.56841       -0.21776
O          1.81076        2.12086        0.64689
C          2.65061        3.00432       -0.09733
C          3.12359        4.12456        0.81122
H          2.28144        4.63185        1.29935
H          3.77029        3.70987        1.59869
H          3.70784        4.86943        0.24934
C          3.83855        2.18004       -0.58496
H          4.56792        2.79138       -1.13667
H          4.34152        1.73825        0.28711
H          3.49047        1.35368       -1.21995
C          1.70589        3.45382       -1.26669
O          0.80265        2.35219       -1.36964
C          2.39871        3.63182       -2.60700
H          2.83979        2.68649       -2.94708
H          1.66428        3.95194       -3.36119
H          3.18670        4.39867       -2.55079
C          0.89377        4.69745       -0.92645
H          0.39515        4.59080        0.04615
H          1.51972        5.60190       -0.90859
H          0.11324        4.83462       -1.68972
B          1.19585       -0.55083        1.37617
O          1.02082       -0.56229        2.76967
C          2.30193       -0.65554        3.39737
C          2.77903        0.76860        3.66319
H          2.84345        1.33153        2.72116
H          2.03797        1.27235        4.30144
H          3.75027        0.79024        4.17932
C          2.16280       -1.42033        4.70089
H          1.54989       -0.83968        5.40613
H          3.14637       -1.58932        5.16577
H          1.67404       -2.39168        4.54939
C          3.14252       -1.37909        2.29439
O          2.50357       -0.94560        1.09796
C          4.60726       -0.98247        2.24774
H          5.11479       -1.22534        3.19410
H          5.11381       -1.52776        1.43772
H          4.71911        0.09112        2.05131
C          3.01306       -2.89918        2.35507
H          1.95653       -3.19923        2.41730
H          3.43070       -3.32778        1.43234
H          3.55024       -3.32974        3.21300
H         -3.75327       -5.06311       -0.34173
H         -5.29265        1.18040       -3.10925
C         -1.80550        0.36776        2.32778
C         -3.06344       -0.24661        2.19067
C         -1.55030        1.64879        1.81761
C         -4.03777        0.46038        1.49741
C         -3.36258       -1.59363        2.76902
C         -2.59104        2.32888        1.16928
H         -0.59590        2.13992        2.00817
F         -5.23447       -0.10922        1.30582
C         -3.83484        1.74199        0.99169
Cl        -2.33035        3.92732        0.55617
H         -4.64032        2.25651        0.46827
H         -2.45541       -2.04052        3.19538
H         -3.76484       -2.27926        2.00768
H         -4.12021       -1.52299        3.56598
