114
Int1_comp171_1_Sub19.log	Energy: -1558328.8493764
N         -0.97798       -2.50067       -0.77985
C         -0.27624       -3.46778       -0.16420
C         -0.62219       -4.81448       -0.31620
C         -1.71198       -5.15152       -1.10886
C         -2.44319       -4.13473       -1.71769
C         -2.04336       -2.81962       -1.51679
H         -2.59908       -1.97887       -1.93576
H         -3.31816       -4.34904       -2.33305
H         -0.05354       -5.59257        0.19201
C          0.83427       -3.01415        0.69985
N          0.93950       -1.68223        0.87453
C          1.88621       -1.19446        1.67849
C          2.79668       -2.01764        2.33675
C          2.72189       -3.39182        2.14058
C          1.72316       -3.89687        1.31668
H          1.65498       -4.96923        1.13816
H          3.55877       -1.57639        2.98115
H          1.89020       -0.10382        1.77870
Ir        -0.45687       -0.39709       -0.31111
H          0.66355        1.49981       -2.20659
B         -1.93971       -0.45972        1.06585
O         -2.89133       -1.46957        1.04826
C         -3.63985       -1.41430        2.26354
C         -5.07863       -1.79767        1.97275
H         -5.49190       -1.18623        1.16063
H         -5.70991       -1.67734        2.86657
H         -5.12436       -2.85186        1.66118
C         -3.00475       -2.41344        3.22582
H         -3.56471       -2.49726        4.16884
H         -2.98536       -3.40169        2.74295
H         -1.96752       -2.12759        3.45528
C         -3.43141        0.07126        2.70754
O         -2.13622        0.35475        2.16755
C         -4.41287        1.02803        2.03904
H         -4.42319        0.86655        0.95191
H         -5.43152        0.91993        2.43996
H         -4.07370        2.05852        2.21742
C         -3.40417        0.29455        4.20768
H         -2.58897       -0.26490        4.68462
H         -3.25011        1.36287        4.42009
H         -4.35785       -0.00792        4.66693
B         -0.12584        1.43193        0.54521
O         -0.94075        2.54746        0.51716
C         -0.36471        3.60920        1.28034
C          0.19933        4.63144        0.30117
H          0.99921        4.20245       -0.31635
H         -0.60855        4.96410       -0.36632
H          0.60084        5.51388        0.82060
C         -1.46595        4.24504        2.11331
H         -1.06303        5.02109        2.78185
H         -2.20077        4.71878        1.44552
H         -1.99078        3.49199        2.71436
C          0.74109        2.87271        2.12378
O          0.99287        1.69913        1.33888
C          0.23803        2.39150        3.48158
H         -0.67251        1.78815        3.36342
H          1.01155        1.75494        3.93749
H          0.04004        3.22878        4.16672
C          2.03523        3.64864        2.29064
H          2.49210        3.89755        1.32519
H          1.86036        4.57915        2.85220
H          2.75421        3.04162        2.86174
B         -1.82688        0.62257       -1.40719
O         -1.53171        1.34117       -2.57030
C         -2.68419        2.09781       -2.95326
C         -2.55701        3.47546       -2.31295
H         -2.50624        3.38714       -1.21890
H         -1.61684        3.93512       -2.65142
H         -3.38776        4.13835       -2.59604
C         -2.71897        2.21869       -4.46552
H         -1.86128        2.81702       -4.80623
H         -3.63871        2.72310       -4.79956
H         -2.65909        1.23681       -4.95297
C         -3.84349        1.25107       -2.33101
O         -3.20540        0.64289       -1.20817
C         -5.03502        2.05774       -1.84789
H         -5.49676        2.61736       -2.67592
H         -5.79492        1.38209       -1.42770
H         -4.74134        2.76549       -1.06262
C         -4.31028        0.12408       -3.24808
H         -3.45227       -0.44561       -3.63559
H         -4.94457       -0.56139       -2.66676
H         -4.89304        0.49674       -4.10315
H         -1.99486       -6.19848       -1.23765
H          3.43676       -4.06722        2.61428
C          1.26752        0.64211       -1.91031
C          0.91560       -0.63614       -2.38292
C          2.55626        0.84336       -1.33757
C          1.80002       -1.70228       -2.16822
H          0.04669       -0.74912       -3.03131
C          2.94210        2.20341       -1.12646
C          3.43175       -0.21394       -1.08047
C          3.00608       -1.50772       -1.49544
H          1.54668       -2.70274       -2.52396
N          3.23155        3.32305       -1.03115
C          4.80811       -0.03474       -0.48666
C          3.81685       -2.65658       -1.22860
N          4.43615       -3.61226       -1.00302
H          5.17974       -1.04701       -0.25193
C          4.85719        0.75886        0.82532
H          4.18045        0.30141        1.56047
H          4.49285        1.78471        0.66795
C          6.27984        0.81383        1.37008
H          6.29893        1.40124        2.30224
H          6.61152       -0.20666        1.63677
C          7.24471        1.40503        0.34850
H          8.27087        1.41699        0.75001
H          6.96897        2.45804        0.16033
C          7.19812        0.63250       -0.96481
H          7.57706       -0.39229       -0.79936
H          7.86697        1.09446       -1.70872
C          5.78126        0.55656       -1.52151
H          5.43962        1.56668       -1.80467
H          5.75874       -0.05528       -2.43763
