113
Int1_comp98_2_Sub20.log	Energy: -1453459.7766056
N          0.18245        2.30978        1.06408
C          1.06246        3.10412        0.42998
C          1.22725        4.44018        0.80785
C          0.47028        4.95094        1.85478
C         -0.43889        4.11578        2.49846
C         -0.55028        2.80054        2.06439
H         -1.25197        2.10242        2.52420
H         -1.05933        4.47236        3.32199
H          1.93520        5.08083        0.28307
C          1.80978        2.48512       -0.68619
N          1.44337        1.23409       -1.02017
C          2.04987        0.61725       -2.03833
C          3.06512        1.22120       -2.77332
C          3.46651        2.50779       -2.42897
C          2.82948        3.14799       -1.37324
H          3.13207        4.15299       -1.08131
H          3.53128        0.67978       -3.59800
H          1.67041       -0.38232       -2.26878
Ir        -0.16067        0.28523        0.20854
H          0.79668       -0.70905        2.79586
B         -1.71723        0.99097       -0.81278
O         -2.25882        2.24226       -0.52889
C         -3.11747        2.61745       -1.60424
C         -4.27843        3.42330       -1.05142
H         -4.78888        2.87886       -0.24674
H         -5.00962        3.65978       -1.83976
H         -3.90461        4.37086       -0.63564
C         -2.28848        3.47002       -2.56125
H         -2.88873        3.86918       -3.39216
H         -1.86464        4.31538       -1.99918
H         -1.45320        2.88702       -2.97678
C         -3.50968        1.22892       -2.21503
O         -2.35690        0.43911       -1.91219
C         -4.70189        0.59152       -1.51002
H         -4.53018        0.55932       -0.42595
H         -5.63992        1.12339       -1.72764
H         -4.80313       -0.44729       -1.85562
C         -3.72228        1.23022       -3.71804
H         -2.81347        1.53542       -4.25256
H         -3.98575        0.21603       -4.05313
H         -4.54484        1.90552       -4.00012
B         -0.49245       -1.40953       -0.85377
O         -1.24487       -2.53389       -0.50075
C         -1.46492       -3.34469       -1.65415
C         -1.50968       -4.80384       -1.23623
H         -0.61554       -5.09152       -0.66779
H         -2.38644       -4.97569       -0.59441
H         -1.59707       -5.46341       -2.11336
C         -2.80568       -2.92178       -2.24576
H         -3.08745       -3.53442       -3.11498
H         -3.57840       -3.03533       -1.47124
H         -2.77581       -1.86085       -2.52938
C         -0.24952       -2.95732       -2.56435
O          0.04529       -1.63262       -2.12788
C         -0.55609       -2.92716       -4.05152
H         -1.33515       -2.18816       -4.27677
H          0.34892       -2.64611       -4.61080
H         -0.88509       -3.91467       -4.41024
C          0.98817       -3.81029       -2.30155
H          1.21673       -3.84696       -1.22763
H          0.86994       -4.83915       -2.67219
H          1.84834       -3.35572       -2.81550
B         -1.60990       -0.47771        1.39490
O         -1.37747       -1.06000        2.65106
C         -2.57495       -1.70287        3.09419
C         -2.50485       -3.15881        2.64420
H         -2.42018       -3.21561        1.54977
H         -1.60296       -3.61747        3.07542
H         -3.37851       -3.73706        2.97948
C         -2.65110       -1.62159        4.60795
H         -1.83372       -2.21008        5.05045
H         -3.60371       -2.03092        4.97824
H         -2.55102       -0.58737        4.96228
C         -3.67672       -0.89233        2.33355
O         -2.98540       -0.47253        1.16306
C         -4.89530       -1.70152        1.92508
H         -5.40066       -2.13229        2.80332
H         -5.61340       -1.05245        1.40230
H         -4.61660       -2.51300        1.24092
C         -4.11108        0.36513        3.08243
H         -3.23719        0.94527        3.41365
H         -4.69513        0.99878        2.39911
H         -4.73058        0.13451        3.96176
H          0.58669        5.99296        2.16039
H          4.26815        3.01076       -2.97428
C          1.64008       -0.67556        2.10284
C          2.44307        0.46242        1.99156
C          2.00594       -1.82286        1.37586
N          3.52024        0.55090        1.21682
H          2.19951        1.35040        2.58501
C          1.26635       -3.11083        1.54971
C          3.12204       -1.71215        0.54214
C          3.85536       -0.52106        0.48804
H          1.10032       -3.31526        2.61732
H          1.82212       -3.95287        1.11390
H          0.27605       -3.05390        1.07334
H          3.44161       -2.56939       -0.05565
C          5.08693       -0.40750       -0.36415
H          5.12234        0.61648       -0.76636
H          4.99836       -1.09564       -1.22098
C          6.42921       -0.69464        0.35202
C          6.43547       -2.10750        0.93727
H          7.41019       -2.33001        1.39967
H          5.66147       -2.22780        1.71043
H          6.25399       -2.86543        0.15768
C          7.54124       -0.57602       -0.69237
H          7.55542        0.42937       -1.14296
H          8.52885       -0.75506       -0.23832
H          7.40662       -1.30832       -1.50486
C          6.67301        0.32398        1.46613
H          7.64122        0.13199        1.95602
H          6.68805        1.35020        1.06709
H          5.88272        0.28585        2.22880
