103
Int1_comp171_1_Sub23.log	Energy: -1470542.3443715
N         -0.85732       -2.34086        0.37998
C         -2.03730       -2.62257       -0.20040
C         -2.61766       -3.88868       -0.07129
C         -1.94652       -4.87282        0.64305
C         -0.69973       -4.57859        1.19111
C         -0.19071       -3.29583        1.03011
H          0.78526       -3.00666        1.42437
H         -0.12579       -5.32712        1.73944
H         -3.58612       -4.10336       -0.52112
C         -2.64339       -1.53382       -0.99543
N         -1.94754       -0.38199       -1.04473
C         -2.38792        0.62580       -1.80577
C         -3.56079        0.53479       -2.54750
C         -4.31254       -0.63472       -2.47431
C         -3.84669       -1.68336       -1.69216
H         -4.42035       -2.60589       -1.61719
H         -3.87713        1.37850       -3.16315
H         -1.75658        1.52118       -1.80204
Ir        -0.10577       -0.26471        0.21110
H         -0.48967        2.01501        2.07931
B          1.17382       -0.87611       -1.22425
O          1.44153       -2.22377       -1.42179
C          2.16888       -2.37135       -2.64185
C          3.17278       -3.49803       -2.48315
H          3.80652       -3.33855       -1.60155
H          3.81549       -3.58559       -3.37265
H          2.64008       -4.45153       -2.35085
C          1.15351       -2.71239       -3.72854
H          1.63251       -2.91778       -4.69717
H          0.59579       -3.60838       -3.41857
H          0.43193       -1.89230       -3.85834
C          2.80086       -0.95018       -2.82666
O          1.84176       -0.11630       -2.16870
C          4.12086       -0.78712       -2.08142
H          4.00852       -1.09871       -1.03405
H          4.93534       -1.35436       -2.55578
H          4.39200        0.27887       -2.08132
C          2.94519       -0.49919       -4.26853
H          1.97223       -0.44395       -4.77366
H          3.39813        0.50269       -4.29977
H          3.59860       -1.18424       -4.83049
B          0.59618        1.58131       -0.32078
O          1.77849        2.19170        0.06803
C          1.81234        3.53860       -0.40886
C          1.38079        4.44257        0.74107
H          0.33928        4.24837        1.03313
H          2.02705        4.24342        1.60822
H          1.46744        5.50744        0.48035
C          3.23383        3.86882       -0.82902
H          3.28829        4.86369       -1.29698
H          3.88873        3.87273        0.05505
H          3.62088        3.12227       -1.53432
C          0.77454        3.50755       -1.58210
O         -0.09785        2.44525       -1.17220
C          1.39513        3.09238       -2.91153
H          1.95303        2.15337       -2.80066
H          0.58651        2.91468       -3.63622
H          2.05329        3.87489       -3.31703
C         -0.03126        4.78238       -1.75257
H         -0.63448        5.00951       -0.86497
H          0.63230        5.63444       -1.96695
H         -0.71796        4.67128       -2.60553
B          1.56849       -0.27736        1.36072
O          1.62193        0.21652        2.66994
C          2.98192        0.23296        3.11058
C          3.54463        1.61832        2.81384
H          3.49444        1.82954        1.73741
H          2.92238        2.36589        3.32761
H          4.57980        1.72564        3.16983
C          3.02245       -0.04121        4.60316
H          2.53787        0.78648        5.14163
H          4.06036       -0.11816        4.96206
H          2.49193       -0.96711        4.86132
C          3.62194       -0.88229        2.21795
O          2.80237       -0.84483        1.05102
C          5.06558       -0.63098        1.82153
H          5.71220       -0.55333        2.70917
H          5.43306       -1.46483        1.20495
H          5.15877        0.29042        1.23314
C          3.47909       -2.27727        2.82081
H          2.44410       -2.45662        3.14874
H          3.72696       -3.01999        2.04826
H          4.14729       -2.43113        3.68084
H         -2.38900       -5.86436        0.75994
H         -5.25011       -0.73634       -3.02533
C         -1.32790        1.34747        1.87901
C         -1.31133        0.05246        2.42203
C         -2.51807        1.89167        1.32010
C         -2.47762       -0.71882        2.33959
H         -0.45663       -0.26706        3.01621
C         -2.48244        3.27751        0.99124
C         -3.67707        1.09550        1.17391
C         -3.61860       -0.23819        1.71026
H         -2.49893       -1.72492        2.76270
N         -2.40399        4.41932        0.79291
N         -4.82889        1.48492        0.58117
C         -4.74801       -1.08785        1.53745
N         -5.67776       -1.75782        1.34200
H         -5.57511        0.80128        0.59689
C         -5.07200        2.69534       -0.15744
H         -6.02365        2.58286       -0.69299
H         -4.28209        2.87900       -0.90137
H         -5.14104        3.58524        0.48709
