104
Int1_comp75_3_Sub23.log	Energy: -1449815.6986599
N         -2.21994       -0.58284       -1.77539
C         -3.13201       -1.52245       -1.47171
C         -4.36616       -1.56363       -2.12811
C         -4.64427       -0.62406       -3.11320
C         -3.67998        0.33024       -3.42790
C         -2.47805        0.31257       -2.73016
H         -1.68000        1.03374       -2.92750
H         -3.85216        1.08341       -4.19835
H         -5.10880       -2.31750       -1.86777
C         -2.74599       -2.48012       -0.41104
N         -1.56317       -2.25193        0.19020
C         -1.14466       -3.06148        1.16682
C         -1.88886       -4.15969        1.58610
C         -3.10890       -4.41843        0.96767
C         -3.54461       -3.56617       -0.04037
H         -4.49721       -3.74939       -0.53696
H         -1.51039       -4.79532        2.38829
H         -0.19582       -2.77919        1.63182
Ir        -0.46520       -0.41322       -0.42250
H          1.24237       -0.35133       -2.75097
B         -1.54283        0.72017        0.82287
O         -2.79310        1.20923        0.43944
C         -3.48271        1.65262        1.60566
C         -4.35290        2.84222        1.24447
H         -3.76431        3.62741        0.75292
H         -4.83696        3.26736        2.13725
H         -5.14106        2.52372        0.54595
C         -4.34846        0.48820        2.08111
H         -4.97798        0.75888        2.94165
H         -5.00358        0.17867        1.25313
H         -3.72280       -0.37332        2.35832
C         -2.30266        1.96866        2.58639
O         -1.30060        1.05180        2.14688
C         -1.74973        3.37835        2.40708
H         -1.49521        3.55586        1.35415
H         -2.45634        4.14554        2.75666
H         -0.82013        3.47159        2.98664
C         -2.60120        1.70267        4.05103
H         -2.84930        0.64770        4.22479
H         -1.71415        1.94277        4.65575
H         -3.43490        2.32838        4.40571
B          0.97859       -0.30937        1.00055
O          2.14337        0.46030        1.02140
C          2.60283        0.55550        2.36817
C          4.11590        0.67872        2.37688
H          4.59420       -0.12824        1.80774
H          4.40613        1.63439        1.91424
H          4.50540        0.67112        3.40681
C          1.96854        1.80999        2.96331
H          2.30890        1.99967        3.99235
H          2.24381        2.67031        2.33649
H          0.87333        1.72555        2.94295
C          2.04576       -0.76537        3.00657
O          0.90868       -1.03946        2.19092
C          1.58234       -0.62341        4.44681
H          0.76017        0.09924        4.52302
H          1.21393       -1.59377        4.81251
H          2.40701       -0.30291        5.10236
C          3.00410       -1.94248        2.87325
H          3.34092       -2.05333        1.83346
H          3.88409       -1.83423        3.52507
H          2.47600       -2.86444        3.16027
B          0.24142        1.39737       -0.97189
O          0.73250        1.69480       -2.25780
C          1.37246        2.97159       -2.20875
C          2.83038        2.72455       -1.83028
H          2.88603        2.23812       -0.84454
H          3.27328        2.03749       -2.56582
H          3.41904        3.65416       -1.81870
C          1.27632        3.63408       -3.56952
H          1.85736        3.05654       -4.30376
H          1.68391        4.65648       -3.54061
H          0.23740        3.68041       -3.92194
C          0.57580        3.67728       -1.06563
O          0.23175        2.57916       -0.22865
C          1.37501        4.68393       -0.25728
H          1.73741        5.50752       -0.89206
H          0.73870        5.11299        0.53086
H          2.23405        4.20539        0.22966
C         -0.72266        4.31077       -1.55942
H         -1.30999        3.59152       -2.14864
H         -1.32994        4.60304       -0.69054
H         -0.54121        5.20722       -2.17073
H         -5.60596       -0.63881       -3.63071
H         -3.72007       -5.27247        1.26782
C          1.37653       -1.30171       -2.23262
C          0.41875       -2.32933       -2.25890
C          2.57075       -1.60307       -1.58600
C          0.66963       -3.57154       -1.64192
H         -0.49921       -2.18786       -2.83035
O          3.64333       -0.77137       -1.47194
C          2.85633       -2.83222       -0.97173
C          1.86878       -3.83360       -0.99505
H         -0.10060       -4.34569       -1.68030
C          4.59186       -1.43914       -0.77945
C          4.18956       -2.71173       -0.45206
H          2.04763       -4.80269       -0.52379
N          5.72552       -0.74247       -0.51184
H          4.76386       -3.44774        0.10382
H          6.51854       -1.29398       -0.21977
C          5.96137        0.58117       -1.02420
H          6.81000        1.02607       -0.48752
H          5.07845        1.20991       -0.84741
H          6.18118        0.60089       -2.10797
