106
Int1_comp49_0_Sub12.log	Energy: -1653180.4104946
N         -0.16240        2.48959       -0.77112
C         -1.01736        3.29528       -0.11827
C         -1.06961        4.66542       -0.39072
C         -0.22953        5.19743       -1.36091
C          0.65437        4.35059       -2.02420
C          0.65906        3.00232       -1.68758
H          1.34786        2.29707       -2.15562
H          1.33968        4.72347       -2.78679
H         -1.75242        5.31462        0.15680
C         -1.85404        2.64735        0.91464
N         -1.56974        1.35759        1.17764
C         -2.21857        0.72097        2.15629
C         -3.22083        1.33502        2.90132
C         -3.55686        2.65465        2.61349
C         -2.86023        3.32137        1.61258
H         -3.09905        4.35814        1.37664
H         -3.72611        0.77769        3.69195
H         -1.89321       -0.30974        2.33325
Ir        -0.05422        0.36883       -0.12205
H         -0.88672       -0.02383       -2.76886
B          1.59953        0.85255        0.89174
O          2.30263        2.02291        0.62387
C          3.22456        2.25125        1.68829
C          4.47628        2.89797        1.12489
H          4.88717        2.30535        0.29763
H          5.24963        3.01044        1.90024
H          4.23200        3.89844        0.73753
C          2.54148        3.19110        2.67819
H          3.20811        3.48530        3.50223
H          2.22894        4.09899        2.14121
H          1.64175        2.72146        3.10267
C          3.42727        0.80868        2.26270
O          2.16389        0.19910        1.97498
C          4.49826        0.02565        1.51130
H          4.29167        0.03662        0.43237
H          5.50608        0.42123        1.70599
H          4.46786       -1.02231        1.84002
C          3.67342        0.74540        3.75885
H          2.83200        1.16675        4.32406
H          3.79591       -0.30326        4.06768
H          4.59175        1.28851        4.03060
B          0.16333       -1.44859        0.79026
O          1.02895       -2.47037        0.44665
C          1.11163       -3.44022        1.48480
C          1.11636       -4.82155        0.84839
H          0.26014       -4.95011        0.17418
H          2.03356       -4.94129        0.25278
H          1.10227       -5.61556        1.61046
C          2.42937       -3.19793        2.21325
H          2.59861       -3.92775        3.01867
H          3.24829       -3.28648        1.48434
H          2.45832       -2.17964        2.62136
C         -0.16035       -3.12959        2.36936
O         -0.53961       -1.81808        1.94103
C          0.11110       -3.07291        3.86521
H          0.85064       -2.29888        4.10577
H         -0.82150       -2.82798        4.39570
H          0.47215       -4.04108        4.24380
C         -1.32664       -4.07228        2.09913
H         -1.56730       -4.11046        1.02847
H         -1.10806       -5.09252        2.44644
H         -2.21244       -3.71191        2.64264
B          1.28628       -0.42745       -1.41208
O          0.92388       -0.89043       -2.68736
C          2.01301       -1.64851       -3.22526
C          1.79429       -3.10172       -2.82019
H          1.77861       -3.19529       -1.72557
H          0.81083       -3.42768       -3.18774
H          2.56487       -3.76493       -3.24059
C          2.01444       -1.51199       -4.73646
H          1.11321       -1.98925       -5.14870
H          2.89259       -2.01061       -5.17481
H          2.01485       -0.45974       -5.05030
C          3.23705       -0.99437       -2.50082
O          2.66328       -0.55080       -1.27387
C          4.37613       -1.94996       -2.19382
H          4.77795       -2.39934       -3.11507
H          5.19236       -1.40736       -1.69386
H          4.04215       -2.75102       -1.52249
C          3.76446        0.24084       -3.22570
H          2.94046        0.92132       -3.48762
H          4.44785        0.77981       -2.55324
H          4.30927       -0.01642       -4.14611
H         -0.25897        6.26510       -1.58897
H         -4.34701        3.16583        3.16797
C         -1.78872        0.12830       -2.17014
S         -2.75626        1.53817       -2.29097
C         -2.44645       -0.85814       -1.43924
C         -3.99971        0.84804       -1.32642
C         -3.74458       -0.44295       -0.94302
C         -1.95412       -2.19746       -1.38414
H         -4.88266        1.43988       -1.09574
C         -4.74252       -1.33809       -0.22273
N         -1.62318       -3.30970       -1.37429
C         -4.11514       -1.97933        1.01872
H         -4.78707       -2.75337        1.42112
H         -3.14874       -2.44944        0.80494
H         -3.95313       -1.23039        1.80472
C         -5.96946       -0.53539        0.21334
H         -6.51620       -0.11954       -0.64706
H         -6.66412       -1.19049        0.76042
H         -5.68911        0.29228        0.88377
C         -5.19581       -2.43593       -1.20043
H         -5.96167       -3.06805       -0.72386
H         -5.63077       -1.99452       -2.11015
H         -4.36261       -3.08783       -1.49781
