104
Int1_comp15_2_Sub13.log	Energy: -1447410.5475483
N          1.33282       -1.75731        0.89842
C          2.36470       -1.38911        1.68067
C          3.08205       -2.34316        2.41007
C          2.71796       -3.68025        2.33463
C          1.62685       -4.03665        1.54558
C          0.95756       -3.03919        0.84919
H          0.07226       -3.24589        0.24418
H          1.28925       -5.07128        1.46893
H          3.91856       -2.04114        3.03879
C          2.67040        0.05449        1.73060
N          1.84942        0.86019        1.03146
C          2.04094        2.18029        1.06242
C          3.08881        2.76813        1.76344
C          3.95799        1.94704        2.47219
C          3.73926        0.57481        2.46484
H          4.40628       -0.08507        3.01847
H          3.21860        3.85045        1.73030
H          1.30717        2.77182        0.51220
Ir         0.25895       -0.16802       -0.15443
H         -0.07823        0.55559       -2.79862
B         -1.06767       -0.13840        1.41214
O         -0.63050       -0.44596        2.69122
C         -1.65311       -0.04719        3.61205
C         -1.63742       -0.98112        4.80603
H         -1.71031       -2.03027        4.49178
H         -2.46845       -0.75809        5.49262
H         -0.69495       -0.85717        5.35955
C         -1.32884        1.38177        4.03690
H         -2.02888        1.75776        4.79729
H         -0.31361        1.40033        4.45954
H         -1.34363        2.05671        3.16786
C         -2.93586       -0.13246        2.72208
O         -2.41287        0.17564        1.42507
C         -3.51427       -1.54095        2.64913
H         -2.73640       -2.26947        2.38059
H         -3.98580       -1.84141        3.59629
H         -4.27495       -1.56696        1.85620
C         -4.02081        0.86803        3.07361
H         -3.66084        1.90073        2.98074
H         -4.87501        0.74382        2.39217
H         -4.38022        0.71144        4.10234
B         -0.94636        1.46904       -0.52341
O         -1.89499        1.62594       -1.51107
C         -2.58236        2.86498       -1.31662
C         -2.87364        3.47562       -2.67551
H         -1.95956        3.57223       -3.27502
H         -3.57301        2.82801       -3.22452
H         -3.33735        4.46865       -2.57230
C         -3.88448        2.54682       -0.59017
H         -4.49403        3.44698       -0.42343
H         -4.46657        1.84495       -1.20470
H         -3.67826        2.05580        0.36997
C         -1.56965        3.68020       -0.43637
O         -0.83373        2.63942        0.21959
C         -2.21179        4.55938        0.62136
H         -2.82233        3.96893        1.31676
H         -1.42791        5.06700        1.20265
H         -2.84737        5.33111        0.16093
C         -0.57171        4.48516       -1.26155
H         -0.05394        3.84350       -1.98907
H         -1.05373        5.32177       -1.78787
H          0.19245        4.90519       -0.58984
B         -1.16404       -1.29333       -1.06321
O         -1.46802       -1.28123       -2.41793
C         -2.67137       -2.02552       -2.61636
C         -3.83295       -1.04606       -2.48288
H         -3.86075       -0.61389       -1.47255
H         -3.67275       -0.21789       -3.18707
H         -4.80004       -1.52150       -2.70356
C         -2.65322       -2.64309       -4.00158
H         -2.69216       -1.84633       -4.75854
H         -3.52364       -3.29989       -4.15287
H         -1.73777       -3.22455       -4.17257
C         -2.61214       -3.04710       -1.43327
O         -1.89647       -2.30688       -0.43972
C         -3.96186       -3.45527       -0.87328
H         -4.57168       -3.95763       -1.63984
H         -3.82090       -4.15435       -0.03557
H         -4.51428       -2.58566       -0.49661
C         -1.78459       -4.28507       -1.76524
H         -0.80592       -4.00365       -2.18191
H         -1.61505       -4.85952       -0.84188
H         -2.29340       -4.94231       -2.48533
H          3.27321       -4.43402        2.89689
H          4.79993        2.36725        3.02619
C          0.86256        0.58335       -2.24683
C          1.60686       -0.61391       -2.01716
N          1.51058        1.79393       -2.20909
C          2.98292       -0.47339       -1.68822
H          1.21828       -1.57781       -2.34763
C          2.76549        1.77840       -1.85094
N          3.55071        0.71177       -1.57397
C          3.84409       -1.70374       -1.52047
C          3.41617        3.07181       -1.73321
N          3.92345        4.10457       -1.60122
H          3.24614       -2.43093       -0.94333
C          4.12111       -2.31889       -2.89643
H          4.70500       -3.24619       -2.79277
H          3.19184       -2.56102       -3.43333
H          4.69963       -1.61905       -3.51930
C          5.13770       -1.41618       -0.77412
H          4.94352       -0.96718        0.20989
H          5.70897       -2.34557       -0.62926
H          5.75750       -0.70229       -1.33446
