101
Int1_comp171_9_Sub17.log	Energy: -1622566.5997863
N          0.30374       -2.46614       -0.45173
C          1.36937       -2.98305        0.18524
C          1.67556       -4.34350        0.07649
C          0.85316       -5.16704       -0.68104
C         -0.27185       -4.62049       -1.29458
C         -0.51226       -3.26079       -1.14607
H         -1.38870       -2.77624       -1.58013
H         -0.95829       -5.23341       -1.88046
H          2.54858       -4.75576        0.58039
C          2.15244       -2.04384        1.01437
N          1.69264       -0.77851        1.06850
C          2.31344        0.11816        1.84085
C          3.44541       -0.20115        2.58358
C          3.95232       -1.49423        2.50974
C          3.29340       -2.42970        1.72265
H          3.68196       -3.44348        1.63991
H          3.92840        0.56899        3.18607
H          1.87114        1.11913        1.84547
Ir        -0.04098       -0.30146       -0.25444
H          0.43191        1.87472       -2.02195
B         -1.45513       -0.79072        1.14792
O         -1.89536       -2.09657        1.27667
C         -2.67554       -2.19955        2.47119
C         -3.80497       -3.18456        2.23641
H         -4.38535       -2.91375        1.34537
H         -4.48179       -3.22503        3.10357
H         -3.39036       -4.19132        2.07923
C         -1.74423       -2.70550        3.56811
H         -2.27558       -2.88596        4.51395
H         -1.29275       -3.65211        3.23660
H         -0.93083       -1.98801        3.75155
C         -3.13039       -0.71929        2.69545
O         -2.04736        0.00992        2.10292
C         -4.38748       -0.36073        1.91154
H         -4.27808       -0.65351        0.85828
H         -5.28587       -0.83179        2.33668
H         -4.51812        0.73082        1.94110
C         -3.27149       -0.30811        4.14879
H         -2.31917       -0.39479        4.68748
H         -3.59925        0.74007        4.20875
H         -4.02499       -0.92776        4.65872
B         -0.52964        1.58005        0.43333
O         -1.65234        2.31898        0.12123
C         -1.55638        3.62079        0.70998
C         -1.11586        4.58451       -0.38549
H         -0.11509        4.33360       -0.76269
H         -1.82732        4.51807       -1.22112
H         -1.09527        5.62488       -0.03012
C         -2.92752        4.01390        1.23156
H         -2.88574        4.97031        1.77452
H         -3.62247        4.13272        0.38703
H         -3.33277        3.24324        1.89954
C         -0.47003        3.41517        1.82445
O          0.27397        2.29666        1.31153
C         -1.05904        2.98195        3.16200
H         -1.71129        2.10901        3.03291
H         -0.23474        2.69037        3.82978
H         -1.61702        3.79794        3.64398
C          0.46548        4.59306        2.02410
H          1.03053        4.83170        1.11535
H         -0.09928        5.48306        2.34171
H          1.19003        4.35529        2.81724
B         -1.68501       -0.02263       -1.42700
O         -1.66912        0.65517       -2.64520
C         -3.01363        0.81535       -3.10897
C         -3.50477        2.17600       -2.62940
H         -3.47401        2.23300       -1.53319
H         -2.82786        2.94991       -3.01966
H         -4.52169        2.39314       -2.98737
C         -3.02347        0.75823       -4.62559
H         -2.47618        1.62281       -5.02866
H         -4.05246        0.79654       -5.01472
H         -2.53900       -0.15207       -5.00232
C         -3.74289       -0.37511       -2.39969
O         -2.95109       -0.56074       -1.22378
C         -5.17764       -0.09262       -1.99368
H         -5.79718        0.14403       -2.87226
H         -5.60688       -0.97914       -1.50360
H         -5.23271        0.74456       -1.28680
C         -3.67013       -1.67438       -3.19631
H         -2.63924       -1.87772       -3.52305
H         -3.99538       -2.50229       -2.54906
H         -4.31735       -1.65427       -4.08514
H          1.08343       -6.22988       -0.78077
H          4.85675       -1.77443        3.05327
C          1.16986        1.13515       -1.71172
C          1.13860       -0.15427       -2.30872
C          2.41638        1.59116       -1.16379
C          2.26388       -0.98743       -2.19720
H          0.34340       -0.39315       -3.01372
C          3.50448        0.73852       -1.01443
C          2.50113        2.98543       -0.86033
C          3.41551       -0.58913       -1.52155
H          2.24399       -1.98144       -2.64768
C          4.79059        1.26762       -0.41586
N          2.52002        4.13286       -0.69609
C          4.43471       -1.58302       -1.37737
N          5.17541       -2.47116       -1.28473
F          5.57801        0.28889        0.02736
F          4.55440        2.07590        0.62079
F          5.48482        1.96597       -1.31594
