110
Int1_comp39_1_Sub11.log	Energy: -1428813.8092668
N         -0.49533       -2.27026        0.57447
C         -1.51434       -2.75617       -0.15718
C         -1.89403       -4.10054       -0.06081
C         -1.21080       -4.94074        0.80806
C         -0.16338       -4.41849        1.56528
C          0.15965       -3.07654        1.41401
H          0.96551       -2.60812        1.98341
H          0.40165       -5.03894        2.26263
H         -2.70983       -4.49083       -0.66900
C         -2.17176       -1.79399       -1.06583
N         -1.62665       -0.56344       -1.11425
C         -2.14643        0.35873       -1.93053
C         -3.25000        0.09906       -2.73638
C         -3.83475       -1.16422       -2.68762
C         -3.28586       -2.12373       -1.84591
H         -3.72481       -3.11984       -1.79368
H         -3.63905        0.88125       -3.39029
H         -1.62347        1.32007       -1.93482
Ir         0.13551       -0.18457        0.19161
H         -0.74153       -0.45855        2.89622
B          1.53312       -0.83726       -1.10803
O          1.95181       -2.16843       -1.13490
C          2.72599       -2.38334       -2.31204
C          3.82341       -3.38639       -2.00626
H          4.41473       -3.07048       -1.13725
H          4.49760       -3.51470       -2.86719
H          3.37535       -4.36400       -1.77338
C          1.78092       -2.94191       -3.37316
H          2.30563       -3.20967       -4.30230
H          1.29909       -3.84565       -2.97132
H          0.99087       -2.21415       -3.61054
C          3.22845       -0.93807       -2.64862
O          2.18132       -0.12868       -2.11219
C          4.51354       -0.57364       -1.91225
H          4.39577       -0.74385       -0.83380
H          5.37972       -1.13630       -2.29111
H          4.70822        0.49941       -2.05213
C          3.36979       -0.64078       -4.13092
H          2.41152       -0.74605       -4.65577
H          3.71458        0.39514       -4.26558
H          4.10822       -1.30913       -4.60052
B          0.68816        1.67138       -0.40704
O          1.54527        2.56429        0.24056
C          1.86136        3.62787       -0.65461
C          2.12866        4.89106        0.14262
H          1.30120        5.11859        0.82746
H          3.03849        4.75832        0.74675
H          2.28554        5.75409       -0.52287
C          3.10907        3.20760       -1.42651
H          3.46923        4.00034       -2.09923
H          3.90170        2.97165       -0.70166
H          2.90770        2.29345       -2.00336
C          0.58581        3.67228       -1.55769
O          0.16790        2.30826       -1.54232
C          0.83475        4.09678       -2.99355
H          1.51738        3.39963       -3.49558
H         -0.11438        4.10094       -3.55060
H          1.26123        5.11087       -3.04001
C         -0.53719        4.50437       -0.94490
H         -0.70283        4.22236        0.10502
H         -0.32651        5.58316       -0.98970
H         -1.46726        4.31198       -1.50078
B          1.73905       -0.03105        1.40455
O          1.62201       -0.05471        2.80500
C          2.86484        0.37339        3.36630
C          2.78055        1.88824        3.53281
H          2.62263        2.37051        2.55651
H          1.91429        2.12175        4.16963
H          3.68132        2.30532        4.00725
C          3.06617       -0.30086        4.71038
H          2.30090        0.05061        5.41829
H          4.05489       -0.05876        5.12997
H          2.97652       -1.39236        4.63043
C          3.88000       -0.04975        2.25379
O          3.08996        0.05398        1.07562
C          5.08974        0.85826        2.11729
H          5.67647        0.88495        3.04871
H          5.74167        0.48702        1.31259
H          4.78556        1.88027        1.85798
C          4.32693       -1.50401        2.38121
H          3.46064       -2.17278        2.49063
H          4.85522       -1.79376        1.46117
H          5.00366       -1.65934        3.23456
H         -1.49086       -5.99312        0.89069
H         -4.70613       -1.40337       -3.30122
C         -1.38831        0.08331        2.20994
N         -2.67293       -0.32183        1.92441
C         -1.25746        1.39181        1.73826
C         -3.35142        0.66101        1.24771
H         -3.02588       -1.25350        2.08711
C         -2.50817        1.74589        1.13844
H         -0.42759        2.05578        1.96765
C         -4.72616        0.42485        0.70943
H         -2.74391        2.68888        0.65263
H         -4.65620       -0.39623       -0.03246
C         -5.27192        1.64477       -0.02949
H         -4.56845        1.94087       -0.82292
H         -5.32607        2.49349        0.67553
C         -6.65209        1.37422       -0.61542
H         -7.03301        2.27605       -1.12120
H         -6.56553        0.59459       -1.39465
C         -7.63475        0.90857        0.45349
H         -8.61436        0.67827        0.00409
H         -7.80700        1.73290        1.16892
C         -7.09792       -0.30193        1.20892
H         -7.03428       -1.16185        0.51704
H         -7.79582       -0.59868        2.00847
C         -5.71600       -0.02902        1.79150
H         -5.77913        0.76037        2.56128
H         -5.33996       -0.92923        2.30596
