96
Int1_comp165_4_Sub10.log	Energy: -3260802.4779873
N          0.16607        2.51974       -0.91514
C         -0.47378        3.50136       -0.25688
C         -0.24104        4.84617       -0.55946
C          0.66419        5.16936       -1.56294
C          1.31720        4.14142       -2.23671
C          1.03779        2.82955       -1.87525
H          1.52876        1.98495       -2.36067
H          2.03808        4.34550       -3.02964
H         -0.74850        5.63527       -0.00488
C         -1.40245        3.06605        0.80900
N         -1.36673        1.75734        1.12326
C         -2.16347        1.28500        2.08625
C         -3.05734        2.09872        2.77568
C         -3.11358        3.45167        2.45545
C         -2.27132        3.94283        1.46439
H         -2.30115        4.99804        1.19337
H         -3.69503        1.66593        3.54790
H         -2.04461        0.22031        2.30687
Ir        -0.03141        0.45762       -0.10544
H         -1.22470       -0.36414       -2.71625
B          1.69968        0.71217        0.84364
O          2.55794        1.75782        0.51523
C          3.52567        1.88968        1.55532
C          4.84352        2.33427        0.94873
H          5.15213        1.66062        0.13917
H          5.64019        2.36576        1.70781
H          4.73284        3.34418        0.52636
C          3.00129        2.94938        2.52056
H          3.71825        3.17396        3.32397
H          2.80936        3.87348        1.95531
H          2.05248        2.62616        2.97391
C          3.53696        0.45297        2.18016
O          2.19825        0.01428        1.93088
C          4.47801       -0.49785        1.44893
H          4.26235       -0.49375        0.37224
H          5.53385       -0.24326        1.62336
H          4.30281       -1.52021        1.81289
C          3.79546        0.40898        3.67521
H          3.02811        0.96128        4.23285
H          3.77672       -0.63524        4.02081
H          4.78374        0.82924        3.91775
B         -0.11911       -1.27089        0.96660
O          0.33540       -2.54027        0.63507
C          0.36560       -3.36681        1.79538
C         -0.03461       -4.77893        1.40289
H         -1.00654       -4.79448        0.89308
H          0.71546       -5.19339        0.71306
H         -0.08724       -5.43686        2.28388
C          1.80164       -3.35283        2.30986
H          1.93742       -4.00602        3.18452
H          2.46249       -3.70448        1.50385
H          2.10180       -2.32682        2.56010
C         -0.64391       -2.64453        2.76300
O         -0.65960       -1.31129        2.25549
C         -0.20003       -2.59997        4.21622
H          0.75125       -2.06353        4.32148
H         -0.95570       -2.06900        4.81434
H         -0.08814       -3.61351        4.63102
C         -2.06632       -3.18696        2.67392
H         -2.42248       -3.20018        1.63532
H         -2.14715       -4.20075        3.09307
H         -2.73504       -2.52555        3.24498
B          1.12539       -0.65844       -1.33130
O          0.69315       -1.12732       -2.58236
C          1.62400       -2.10610       -3.05358
C          1.12978       -3.46839       -2.57817
H          1.06628       -3.49031       -1.48084
H          0.11604       -3.62964       -2.97303
H          1.77469       -4.28644       -2.93198
C          1.67018       -2.05799       -4.56967
H          0.70063       -2.37918       -4.97828
H          2.44464       -2.73517       -4.96174
H          1.87121       -1.04298       -4.93648
C          2.94236       -1.65886       -2.33859
O          2.44858       -1.05097       -1.14912
C          3.87655       -2.79456       -1.96045
H          4.19777       -3.35888       -2.84958
H          4.77429       -2.38973       -1.47000
H          3.39062       -3.48305       -1.25761
C          3.70289       -0.58710       -3.11486
H          3.02788        0.22500       -3.42306
H          4.47281       -0.15506       -2.45893
H          4.19479       -0.99180       -4.01173
H          0.86168        6.21471       -1.81009
H         -3.80458        4.12208        2.97154
C         -2.00362        0.10383       -2.10673
C         -2.33024        1.44865       -2.27083
C         -2.76091       -0.66010       -1.20850
C         -3.34233        2.06052       -1.54619
F         -1.65344        2.16540       -3.16414
Br        -2.51795       -2.51763       -1.18557
C         -3.76725       -0.05100       -0.44002
C         -4.05048        1.30128       -0.61852
H         -3.56237        3.11650       -1.70666
Cl        -4.65825       -0.94146        0.73934
H         -4.83749        1.75673       -0.01600
