102
Int1_comp45_2_Sub6.log	Energy: -1461667.1964381
N          0.04630       -2.45124       -0.97391
C          0.94376       -3.27879       -0.41340
C          0.85728       -4.66325       -0.59227
C         -0.16673       -5.18627       -1.37106
C         -1.08112       -4.31352       -1.95494
C         -0.93515       -2.95157       -1.72421
H         -1.62704       -2.22090       -2.14784
H         -1.90203       -4.67618       -2.57529
H          1.57620       -5.32960       -0.11623
C          1.99010       -2.63921        0.41271
N          1.84658       -1.31849        0.63032
C          2.73296       -0.67123        1.39367
C          3.82972       -1.31001        1.96024
C          4.00541       -2.67149        1.72793
C          3.07139       -3.34525        0.95088
H          3.18835       -4.41112        0.75640
H          4.53120       -0.74011        2.57151
H          2.51582        0.38879        1.55837
Ir         0.12683       -0.31758       -0.36352
H          0.44229       -0.42778       -3.17420
B         -1.19715       -0.78931        1.09160
O         -1.53819       -0.07157        2.22794
C         -2.63146       -0.72411        2.87738
C         -2.48950       -0.54143        4.37771
H         -1.50057       -0.86211        4.72980
H         -3.26194       -1.10800        4.92052
H         -2.60785        0.52258        4.63105
C         -3.91835       -0.07232        2.38295
H         -4.80772       -0.49932        2.86964
H         -3.88121        1.00301        2.60845
H         -4.00191       -0.17299        1.29280
C         -2.47027       -2.19797        2.37433
O         -1.86183       -2.01474        1.09780
C         -1.49194       -3.00771        3.22162
H         -0.55249       -2.45359        3.36543
H         -1.90574       -3.26404        4.20811
H         -1.25673       -3.94081        2.68829
C         -3.76998       -2.96113        2.19760
H         -4.42153       -2.46703        1.46555
H         -3.55463       -3.97528        1.82918
H         -4.31191       -3.05081        3.15169
B          0.15530        1.49114        0.57099
O         -0.54547        2.64845        0.24842
C         -0.49542        3.55969        1.34413
C         -0.44104        4.97755        0.80268
H          0.39402        5.11014        0.10264
H         -1.37384        5.19875        0.26290
H         -0.33772        5.71009        1.61790
C         -1.77474        3.35071        2.14867
H         -1.85144        4.04615        2.99757
H         -2.63503        3.51373        1.48295
H         -1.82695        2.31454        2.50892
C          0.79736        3.10041        2.11284
O          0.93174        1.73868        1.70505
C          0.67243        3.13634        3.62734
H         -0.12949        2.47139        3.97172
H          1.61435        2.79386        4.08145
H          0.47276        4.15738        3.98737
C          2.05721        3.84011        1.67827
H          2.20382        3.79561        0.59102
H          2.04482        4.89319        1.99588
H          2.93162        3.35505        2.13719
B         -1.52030        0.43914       -1.25821
O         -1.59422        0.76540       -2.62245
C         -2.80416        1.49335       -2.85384
C         -2.47777        2.97714       -2.71057
H         -2.07148        3.18488       -1.70963
H         -1.70877        3.24479       -3.45045
H         -3.35780        3.61204       -2.89053
C         -3.30409        1.19392       -4.25490
H         -2.58822        1.58490       -4.99298
H         -4.27790        1.67387       -4.43784
H         -3.40693        0.11408       -4.42450
C         -3.72073        0.96958       -1.69834
O         -2.77314        0.65018       -0.68655
C         -4.70198        1.99087       -1.15004
H         -5.39167        2.34254       -1.93295
H         -5.30003        1.53534       -0.34695
H         -4.17356        2.85404       -0.72605
C         -4.45526       -0.31867       -2.06121
H         -3.76180       -1.06129       -2.48238
H         -4.88905       -0.74816       -1.14641
H         -5.26592       -0.14686       -2.78470
H         -0.25128       -6.26533       -1.51683
H          4.85896       -3.20716        2.14928
C          1.31161       -0.27517       -2.53929
O          2.24889       -1.28344       -2.52497
C          1.86121        0.89502       -2.03726
C          3.35248       -0.80175       -1.95565
C          3.19992        0.51646       -1.62846
C          1.36230        2.28396       -2.24970
H          4.17606       -1.49438       -1.80021
C          4.18040        1.35876       -0.94493
O          4.05222        2.53357       -0.70135
O          5.27357        0.65814       -0.58735
C          6.26593        1.38891        0.10422
H          7.08329        0.68619        0.30556
H          5.87053        1.79219        1.04918
H          6.63072        2.23311       -0.49960
H          1.49320        2.90709       -1.35999
H          0.30085        2.26400       -2.51451
H          1.93884        2.74780       -3.06694
