98
Int1_comp40_0_Sub15.log	Energy: -1556101.3059157
N         -2.18143        0.14238        1.00746
C         -3.01505       -0.91469        1.03357
C         -4.27627       -0.82627        1.63363
C         -4.66680        0.36889        2.22163
C         -3.77806        1.44082        2.22028
C         -2.54616        1.28560        1.59665
H         -1.79770        2.08159        1.56351
H         -4.03185        2.39341        2.68798
H         -4.94923       -1.68356        1.63601
C         -2.49175       -2.16234        0.44463
N         -1.28965       -2.07368       -0.15444
C         -0.69642       -3.17777       -0.61938
C         -1.29551       -4.42742       -0.55403
C         -2.55591       -4.53427        0.03369
C         -3.15323       -3.39231        0.54740
H         -4.12101       -3.45792        1.04411
H         -0.77570       -5.29969       -0.95349
H          0.30144       -3.03134       -1.03919
Ir        -0.34048       -0.10764       -0.21446
H         -0.22482        1.71812       -2.35355
B          0.89131       -0.69986        1.30842
O          2.07796       -0.11603        1.73242
C          2.52912       -0.77763        2.91295
C          4.04627       -0.82941        2.89733
H          4.41534       -1.26389        1.95943
H          4.43240       -1.42144        3.74155
H          4.45315        0.18936        2.98045
C          2.03685        0.03793        4.10491
H          2.39516       -0.36797        5.06252
H          2.40633        1.06906        4.00530
H          0.93809        0.07728        4.12239
C          1.82292       -2.16944        2.79673
O          0.64010       -1.84118        2.06469
C          2.61251       -3.16100        1.94690
H          2.87333       -2.71034        0.97845
H          3.52581       -3.50758        2.45300
H          1.97328       -4.03465        1.74928
C          1.42929       -2.79996        4.11966
H          0.73335       -2.16045        4.67786
H          0.92832       -3.76146        3.93332
H          2.31464       -2.99166        4.74558
B          1.26958       -0.53661       -1.36342
O          1.53883        0.02639       -2.60947
C          2.85142       -0.35778       -3.01452
C          2.90090       -0.44059       -4.52916
H          2.10667       -1.08764       -4.92400
H          2.75915        0.56341       -4.95527
H          3.87415       -0.82306       -4.87378
C          3.81681        0.71101       -2.51172
H          4.84790        0.52486       -2.84727
H          3.48775        1.68685       -2.89531
H          3.79138        0.76977       -1.41502
C          3.03165       -1.72363       -2.27155
O          2.21113       -1.54455       -1.11717
C          4.45097       -2.02794       -1.82638
H          4.81552       -1.26735       -1.12426
H          4.47954       -3.00182       -1.31490
H          5.13629       -2.07415       -2.68686
C          2.46447       -2.90196       -3.05788
H          1.44020       -2.68905       -3.39829
H          3.07951       -3.14990       -3.93544
H          2.43292       -3.78459       -2.40129
B          0.60735        1.66285        0.17816
O          0.21793        2.51888        1.21433
C          0.88109        3.77439        1.06975
C         -0.08082        4.71837        0.35432
H         -0.32559        4.34451       -0.65048
H         -1.01815        4.77623        0.92728
H          0.32968        5.73441        0.25934
C          1.21466        4.31501        2.44861
H          0.28562        4.54585        2.99115
H          1.80877        5.23936        2.38062
H          1.77399        3.57648        3.03681
C          2.12239        3.39316        0.19236
O          1.64290        2.26021       -0.52881
C          2.55428        4.46065       -0.79783
H          2.85312        5.38524       -0.28001
H          3.41891        4.09711       -1.37228
H          1.75382        4.69722       -1.51073
C          3.31677        2.93469        1.02330
H          3.01961        2.12435        1.70206
H          4.08118        2.52999        0.34404
H          3.76493        3.76075        1.59504
H         -5.65090        0.45642        2.68770
H         -3.05972       -5.50048        0.10699
C         -1.12457        1.27153       -1.93023
S         -2.45974        2.33764       -1.49807
C         -1.62294        0.00351       -2.26781
C         -3.62895        1.04501       -1.67188
C         -3.04646       -0.11591       -2.11219
H         -1.03192       -0.69064       -2.86541
N         -4.92577        1.25255       -1.27850
H         -3.59807       -1.03708       -2.29567
H         -5.25524        2.20733       -1.33718
C         -5.90322        0.22850       -1.51170
H         -6.87492        0.55139       -1.11411
H         -5.61230       -0.69231       -0.98054
H         -6.02685       -0.02728       -2.58274
