99
Int1_comp173_5_Sub14.log	Energy: -1670712.0058262
N         -1.27240        2.11377       -0.34646
C         -2.38138        2.30057        0.38972
C         -3.01757        3.54527        0.42845
C         -2.49390        4.59978       -0.30853
C         -1.34753        4.38706       -1.06904
C         -0.77119        3.12350       -1.05814
H          0.11967        2.89170       -1.64497
H         -0.90324        5.18316       -1.66809
H         -3.91017        3.69381        1.03553
C         -2.85078        1.13032        1.16317
N         -2.08052        0.02863        1.09206
C         -2.39959       -1.05509        1.80690
C         -3.52818       -1.10009        2.61788
C         -4.35084        0.02162        2.68321
C         -4.00576        1.15103        1.95147
H         -4.63091        2.04243        1.99522
H         -3.75074       -2.00598        3.18385
H         -1.69879       -1.89093        1.72767
Ir        -0.27394        0.14128       -0.19138
H         -0.74641       -2.20341       -1.98426
B          0.92490        0.86452        1.24769
O          0.96734        2.22891        1.52490
C          1.62042        2.41433        2.77995
C          2.40064        3.71530        2.74403
H          3.08177        3.74427        1.88393
H          2.98660        3.85324        3.66575
H          1.70305        4.56105        2.65180
C          0.52822        2.48120        3.84430
H          0.93261        2.69334        4.84500
H         -0.17480        3.28326        3.57478
H         -0.03446        1.53665        3.88367
C          2.49656        1.11997        2.89184
O          1.72821        0.17738        2.14177
C          3.85039        1.26399        2.20571
H          3.71974        1.61067        1.17250
H          4.51572        1.94972        2.75077
H          4.33167        0.27651        2.15922
C          2.67591        0.59048        4.30334
H          1.71259        0.32891        4.75957
H          3.29340       -0.31960        4.27783
H          3.18440        1.32913        4.94213
B          0.61328       -1.64290        0.22095
O          1.55126       -2.32952       -0.55306
C          2.19746       -3.30007        0.27148
C          2.61169       -4.48368       -0.58334
H          1.76324       -4.88969       -1.14925
H          3.37759       -4.16423       -1.30558
H          3.04148       -5.28694        0.03473
C          3.42561       -2.62281        0.87300
H          4.01443       -3.31171        1.49655
H          4.06317       -2.25998        0.05447
H          3.12347       -1.74947        1.46777
C          1.09454       -3.60985        1.34241
O          0.34279       -2.39570        1.36316
C          1.62595       -3.86882        2.74180
H          2.15436       -2.98805        3.12767
H          0.78692       -4.08321        3.42061
H          2.30676       -4.73395        2.75682
C          0.15811       -4.73522        0.91963
H         -0.22985       -4.56945       -0.09452
H          0.65561       -5.71576        0.95456
H         -0.70217       -4.76080        1.60490
B          1.39718        0.40718       -1.30736
O          1.39349        0.52198       -2.70703
C          2.74114        0.44086       -3.17909
C          3.02447       -1.02863       -3.47510
H          2.89194       -1.63356       -2.56623
H          2.29726       -1.38241       -4.22094
H          4.03568       -1.18222       -3.88005
C          2.87907        1.27551       -4.43850
H          2.27552        0.83212       -5.24423
H          3.92624        1.30827       -4.77680
H          2.52770        2.30363       -4.28101
C          3.53972        0.97111       -1.94372
O          2.70590        0.57727       -0.85849
C          4.91539        0.35490       -1.76306
H          5.56398        0.57195       -2.62585
H          5.39194        0.77053       -0.86296
H          4.84792       -0.73268       -1.63576
C          3.64108        2.49425       -1.91410
H          2.65312        2.95654       -2.05485
H          4.01730        2.80594       -0.92886
H          4.32426        2.88113       -2.68449
H         -2.97756        5.57875       -0.28759
H         -5.25028        0.02192        3.30292
C         -1.58770       -1.51376       -1.90909
C         -1.50480       -0.24139       -2.49375
C         -2.80565       -1.94114       -1.35404
C         -2.65452        0.55466       -2.48970
H         -0.60437        0.07998       -3.02245
C         -3.94357       -1.13429       -1.33753
Cl        -2.88999       -3.53179       -0.66022
C         -3.84194        0.14163       -1.91947
F         -2.59608        1.76429       -3.04994
C         -5.23117       -1.60021       -0.73308
H         -4.70280        0.81265       -1.93847
H         -6.01173       -0.83391       -0.82954
H         -5.10157       -1.83373        0.33493
H         -5.58324       -2.52373       -1.21846
