97
Int1_comp39_2_Sub17.log	Energy: -1493054.9433145
N          1.53066       -1.06922        1.44280
C          2.61799       -0.33642        1.74945
C          3.58633       -0.82283        2.63504
C          3.41872       -2.07589        3.20836
C          2.28524       -2.81959        2.88293
C          1.36604       -2.27746        1.99246
H          0.47190       -2.81941        1.66854
H          2.11141       -3.80994        3.30715
H          4.46837       -0.22840        2.86963
C          2.71570        0.98827        1.10115
N          1.70496        1.31396        0.27869
C          1.68338        2.51336       -0.30496
C          2.70289        3.44120       -0.13057
C          3.77611        3.10625        0.69155
C          3.77684        1.87100        1.32477
H          4.60181        1.59450        1.98007
H          2.65006        4.40800       -0.63374
H          0.79971        2.72292       -0.91267
Ir         0.11252       -0.18263       -0.02408
H          0.37698       -0.68983       -2.85593
B         -1.02651        0.74430        1.34496
O         -2.39711        0.70883        1.53164
C         -2.72553        1.45237        2.70222
C         -4.04490        2.16750        2.47313
H         -4.01326        2.76700        1.55425
H         -4.29413        2.82565        3.31989
H         -4.85106        1.42686        2.36515
C         -2.85698        0.45616        3.85070
H         -3.18128        0.93844        4.78477
H         -3.60135       -0.30420        3.57404
H         -1.90093       -0.05710        4.03127
C         -1.48449        2.39416        2.85875
O         -0.44494        1.60665        2.27604
C         -1.60253        3.66542        2.02222
H         -1.84536        3.41570        0.97900
H         -2.35829        4.35776        2.42205
H         -0.62792        4.17624        2.02620
C         -1.11195        2.73387        4.28989
H         -0.87202        1.83203        4.86789
H         -0.22415        3.38356        4.29414
H         -1.92993        3.27079        4.79474
B         -1.09960        0.81119       -1.30635
O         -1.61687        0.34167       -2.51489
C         -2.62175        1.25021       -2.96429
C         -2.67551        1.22497       -4.48055
H         -1.68777        1.40899       -4.92339
H         -3.01701        0.23550       -4.81830
H         -3.38114        1.97794       -4.86440
C         -3.95057        0.78459       -2.37635
H         -4.79172        1.40644       -2.71734
H         -4.12723       -0.25288       -2.69209
H         -3.91047        0.78273       -1.27769
C         -2.13407        2.60045       -2.34333
O         -1.46518        2.15803       -1.16224
C         -3.24209        3.56209       -1.95368
H         -3.90508        3.11438       -1.20233
H         -2.80727        4.47582       -1.52139
H         -3.84342        3.85139       -2.82945
C         -1.10058        3.31048       -3.21301
H         -0.29707        2.61872       -3.50703
H         -1.54594        3.73783       -4.12347
H         -0.65266        4.13221       -2.63391
B         -1.30510       -1.62596       -0.12978
O         -0.97293       -2.99411        0.04784
C         -2.10787       -3.79225       -0.29979
C         -1.95769       -4.17411       -1.76927
H         -1.95325       -3.27463       -2.40268
H         -0.99859       -4.69548       -1.90775
H         -2.76295       -4.84234       -2.10832
C         -2.13516       -5.03410        0.57118
H         -1.26462       -5.66817        0.34448
H         -3.04383       -5.62699        0.38454
H         -2.09996       -4.77631        1.63787
C         -3.28191       -2.78879       -0.06215
O         -2.66799       -1.54318       -0.36133
C         -4.48353       -2.98540       -0.96900
H         -4.93289       -3.98017       -0.82412
H         -5.24591       -2.22784       -0.73560
H         -4.20966       -2.87046       -2.02560
C         -3.72891       -2.73677        1.39663
H         -2.86415       -2.62338        2.06649
H         -4.36457       -1.85014        1.52923
H         -4.29697       -3.63152        1.69223
H          4.16642       -2.46833        3.90107
H          4.60216        3.80357        0.84598
C          1.31494       -0.84418       -2.32551
C          1.60343       -1.91106       -1.47301
C          2.52051       -0.09604       -2.47565
N          2.92547       -1.83285       -1.13791
H          0.97401       -2.73762       -1.14588
C          3.48133       -0.72074       -1.71430
H          2.66345        0.80934       -3.06044
H          3.38539       -2.41457       -0.45066
C          4.90288       -0.36399       -1.48863
F          5.11905        0.93161       -1.70799
F          5.74839       -1.04582       -2.27329
F          5.27468       -0.63824       -0.22055
