96
Int1_comp40_4_Sub17.log	Energy: -1708134.9512755
N          0.74052       -2.16520       -0.74789
C          1.76033       -2.64835       -0.01184
C          2.12045       -3.99832       -0.08770
C          1.42209       -4.84496       -0.93786
C          0.37081       -4.32632       -1.69055
C          0.05904       -2.97831       -1.56222
H         -0.76888       -2.50863       -2.10324
H         -0.20972       -4.95405       -2.36839
H          2.93745       -4.38645        0.51955
C          2.43305       -1.68964        0.89002
N          1.91897       -0.44910        0.91696
C          2.45018        0.47244        1.72277
C          3.52862        0.20320        2.55459
C          4.07792       -1.07595        2.53354
C          3.52584       -2.03228        1.69289
H          3.94851       -3.03573        1.65718
H          3.93368        0.98957        3.19271
H          1.98278        1.45913        1.68379
Ir         0.14066       -0.06465       -0.33061
H          0.37529        2.18671       -1.93029
B         -1.07206       -0.93118        1.07063
O         -2.35632       -1.40764        0.85769
C         -2.68258       -2.32442        1.90255
C         -4.16491       -2.22041        2.21011
H         -4.45516       -1.18234        2.41572
H         -4.43512       -2.84417        3.07613
H         -4.74762       -2.56866        1.34431
C         -2.34494       -3.72200        1.39023
H         -2.63828       -4.50785        2.10185
H         -2.88120       -3.88706        0.44442
H         -1.26789       -3.81491        1.18608
C         -1.73283       -1.85653        3.05502
O         -0.62598       -1.31612        2.32631
C         -2.33229       -0.72302        3.87874
H         -2.68164        0.08230        3.21754
H         -3.16261       -1.06762        4.51245
H         -1.54712       -0.30989        4.52860
C         -1.23090       -2.96531        3.96106
H         -0.66019       -3.71550        3.39823
H         -0.56562       -2.54075        4.72727
H         -2.06623       -3.46675        4.47375
B         -0.56176        1.62595        0.57533
O          0.01711        2.89640        0.47234
C         -0.88075        3.85554        1.03747
C         -0.07868        4.99615        1.63570
H          0.67205        4.63179        2.34911
H          0.44861        5.53596        0.83516
H         -0.73582        5.71272        2.15208
C         -1.76416        4.36319       -0.09832
H         -2.46708        5.13912        0.23904
H         -1.11935        4.79793       -0.87664
H         -2.32120        3.52979       -0.55036
C         -1.66894        2.98634        2.07083
O         -1.63286        1.69690        1.46265
C         -3.11754        3.39244        2.27399
H         -3.68376        3.31356        1.33721
H         -3.58840        2.72462        3.01068
H         -3.19317        4.42402        2.65118
C         -0.95674        2.88409        3.41652
H          0.09468        2.59029        3.28245
H         -0.99049        3.83141        3.97443
H         -1.44501        2.10726        4.02036
B         -1.55278        0.12656       -1.43474
O         -2.02898       -0.86891       -2.29645
C         -3.11290       -0.35185       -3.07154
C         -2.53874        0.08767       -4.41471
H         -1.80416        0.89529       -4.27939
H         -2.02431       -0.76749       -4.87786
H         -3.31951        0.43612       -5.10664
C         -4.14591       -1.44585       -3.26916
H         -3.72562       -2.24733       -3.89532
H         -5.04375       -1.05675       -3.77363
H         -4.44188       -1.88495       -2.30793
C         -3.59224        0.85220       -2.19527
O         -2.38039        1.24089       -1.54709
C         -4.14300        2.03145       -2.97536
H         -5.02708        1.73864       -3.56252
H         -4.44768        2.82467       -2.27676
H         -3.39112        2.45308       -3.65506
C         -4.56834        0.43325       -1.09966
H         -4.16308       -0.41221       -0.52556
H         -4.68824        1.27456       -0.40163
H         -5.55692        0.16963       -1.50410
H          1.69313       -5.90073       -1.00670
H          4.93461       -1.32638        3.16260
C          1.23020        1.53847       -1.74945
C          1.39403        0.27594       -2.33412
C          2.45218        2.01385       -1.16578
S          3.05120       -0.26690       -2.23826
H          0.74683       -0.18609       -3.07989
C          3.49144        1.15078       -1.33665
H          2.51948        2.94897       -0.61156
C          4.87056        1.30313       -0.79623
F          4.92394        2.27460        0.11990
F          5.76478        1.60336       -1.74514
F          5.30255        0.17372       -0.21393
