110
Int1_comp36_6_Sub20.log	Energy: -1717133.3733248
N         -0.06319       -2.54413        0.08018
C          0.82460       -3.07125        0.94111
C          0.84530       -4.44366        1.20684
C         -0.06308       -5.27548        0.56839
C         -0.98577       -4.71204       -0.30966
C         -0.95419       -3.33952       -0.51904
H         -1.67487       -2.83102       -1.16416
H         -1.72952       -5.32173       -0.82524
H          1.56148       -4.85748        1.91571
C          1.73446       -2.11675        1.60260
N          1.45970       -0.81093        1.42029
C          2.18767        0.10863        2.05674
C          3.24861       -0.22552        2.89093
C          3.57677       -1.56933        3.04878
C          2.80876       -2.52564        2.39891
H          3.04694       -3.58362        2.50132
H          3.80799        0.55956        3.40218
H          1.87549        1.14248        1.89769
Ir        -0.10882       -0.34009       -0.07615
H          0.96356       -1.71044       -2.43184
B         -1.68397       -0.27071        1.15804
O         -1.84618       -1.19381        2.18553
C         -2.87644       -0.71597        3.05306
C         -3.60792       -1.89987        3.65587
H         -3.96661       -2.58402        2.87601
H         -4.46645       -1.56919        4.26066
H         -2.92474       -2.46123        4.31030
C         -2.19356        0.10803        4.14127
H         -2.90544        0.47146        4.89718
H         -1.44669       -0.52514        4.64224
H         -1.66499        0.96544        3.69834
C         -3.73043        0.16561        2.08373
O         -2.74058        0.63508        1.16793
C         -4.74210       -0.64701        1.28241
H         -4.25472       -1.50088        0.79138
H         -5.57108       -1.00833        1.90878
H         -5.15642       -0.00753        0.49001
C         -4.41027        1.35498        2.73707
H         -3.67887        2.03165        3.19739
H         -4.96997        1.92376        1.97978
H         -5.12161        1.02691        3.51070
B         -0.23745        1.66736        0.22910
O         -0.42098        2.72815       -0.66800
C         -0.79548        3.89802        0.06602
C         -0.27286        5.12827       -0.65425
H          0.81342        5.08744       -0.81110
H         -0.75346        5.20633       -1.64037
H         -0.50510        6.04363       -0.08870
C         -2.31973        3.92850        0.11489
H         -2.69735        4.81377        0.64732
H         -2.70316        3.95445       -0.91439
H         -2.70495        3.01683        0.59417
C         -0.15454        3.63022        1.47035
O         -0.11626        2.20712        1.51850
C         -0.96680        4.14010        2.64825
H         -1.95860        3.67201        2.67342
H         -0.45027        3.89089        3.58711
H         -1.09072        5.23318        2.60508
C          1.28171        4.13152        1.57550
H          1.87674        3.76247        0.72955
H          1.34230        5.22935        1.60105
H          1.73043        3.74071        2.50094
B         -1.51528       -0.16018       -1.52258
O         -1.41000        0.58857       -2.69397
C         -2.66457        0.57585       -3.37108
C         -3.45296        1.78549       -2.87937
H         -3.64129        1.70982       -1.79869
H         -2.84617        2.68586       -3.05057
H         -4.41169        1.89930       -3.40664
C         -2.42632        0.67290       -4.86651
H         -1.99037        1.65390       -5.10585
H         -3.36950        0.57288       -5.42563
H         -1.72615       -0.09838       -5.21290
C         -3.27936       -0.77631       -2.88350
O         -2.69877       -0.91307       -1.58638
C         -4.79185       -0.78336       -2.75755
H         -5.27095       -0.60051       -3.73182
H         -5.12868       -1.76390       -2.38941
H         -5.13566       -0.02223       -2.04626
C         -2.81855       -1.96514       -3.72264
H         -1.72344       -1.97045       -3.82787
H         -3.12030       -2.89696       -3.22081
H         -3.26586       -1.96121       -4.72741
H         -0.05806       -6.35004        0.76336
H          4.41831       -1.87096        3.67630
C          1.71119       -1.07946       -1.95096
C          2.88640       -1.63330       -1.42934
C          1.58357        0.31057       -1.96951
C          3.90325       -0.81486       -0.97020
Cl         3.09304       -3.36418       -1.40612
C          2.62801        1.15884       -1.50801
H          0.74393        0.76500       -2.49952
C          3.82371        0.58979       -1.01029
H          4.80036       -1.29787       -0.58836
N          2.40414        2.50798       -1.65925
C          5.04390        1.43790       -0.61351
H          3.00435        3.14342       -1.15865
H          1.41908        2.77215       -1.64074
C          4.73405        2.38578        0.55695
H          5.62833        2.97746        0.80844
H          3.92317        3.10037        0.36444
H          4.44374        1.81356        1.44850
C          6.21644        0.56673       -0.15136
H          6.55790       -0.11784       -0.94176
H          7.06693        1.21220        0.11607
H          5.95828       -0.03008        0.73701
C          5.52790        2.23178       -1.83986
H          6.38481        2.87036       -1.57098
H          5.85236        1.54045       -2.63216
H          4.74565        2.87084       -2.27152
