102
Int1_comp36_2_Sub16.log	Energy: -1690352.8660301
N          1.37231       -1.85908        0.51324
C          2.45114       -1.68860        1.29673
C          3.28075       -2.76439        1.62508
C          2.97407       -4.03140        1.14767
C          1.83934       -4.19717        0.35808
C          1.06826       -3.07871        0.06499
H          0.16775       -3.14650       -0.54780
H          1.54943       -5.17566       -0.02819
H          4.16069       -2.61451        2.24925
C          2.67773       -0.31364        1.79017
N          1.76897        0.60582        1.41476
C          1.87886        1.86326        1.85146
C          2.91690        2.27144        2.68229
C          3.87265        1.33726        3.06728
C          3.74936        0.02761        2.61973
H          4.48392       -0.72183        2.91253
H          2.97172        3.31144        3.00612
H          1.09249        2.54473        1.51271
Ir         0.14604       -0.07403        0.04492
H          0.57632        0.70774       -2.68389
B         -1.22574       -0.56773        1.40421
O         -1.30898       -1.85323        1.93397
C         -2.14937       -1.81395        3.08599
C         -2.91945       -3.11838        3.18022
H         -3.45612       -3.32839        2.24613
H         -3.64441       -3.09368        4.00838
H         -2.21958       -3.94747        3.36255
C         -1.23834       -1.64924        4.29957
H         -1.79575       -1.67992        5.24742
H         -0.50381       -2.46802        4.29976
H         -0.68593       -0.69951        4.24508
C         -3.02999       -0.54616        2.81288
O         -2.15367        0.25847        2.02091
C         -4.26149       -0.85462        1.96806
H         -3.97084       -1.38141        1.04968
H         -5.00308       -1.44736        2.52375
H         -4.73021        0.09306        1.66645
C         -3.42565        0.23475        4.05323
H         -2.54498        0.60222        4.59549
H         -4.02835        1.10712        3.76037
H         -4.03053       -0.38389        4.73419
B         -0.91335        1.63942       -0.21219
O         -1.86105        1.93106       -1.19703
C         -2.57670        3.10420       -0.81083
C         -3.04493        3.83974       -2.05280
H         -2.21541        4.03591       -2.74458
H         -3.78891        3.22788       -2.58439
H         -3.51958        4.79756       -1.78931
C         -3.77144        2.64548        0.02029
H         -4.42208        3.48428        0.30931
H         -4.35847        1.93325       -0.57754
H         -3.42726        2.11538        0.91982
C         -1.50836        3.86067        0.04421
O         -0.74624        2.78027        0.58238
C         -2.07071        4.68428        1.18838
H         -2.60427        4.04724        1.90502
H         -1.25011        5.18402        1.72487
H         -2.75820        5.46069        0.81849
C         -0.57157        4.71044       -0.80908
H         -0.22228        4.14605       -1.68565
H         -1.05719        5.63129       -1.16425
H          0.30817        4.98942       -0.21024
B         -1.26029       -0.82961       -1.18567
O         -0.97181       -1.31671       -2.48497
C         -2.20403       -1.49245       -3.19517
C         -2.49145       -0.18214       -3.92110
H         -2.57256        0.64397       -3.19918
H         -1.65081        0.03823       -4.59611
H         -3.40957       -0.23738       -4.52431
C         -2.05157       -2.63126       -4.18567
H         -1.32105       -2.35468       -4.96064
H         -3.00841       -2.84801       -4.68490
H         -1.69764       -3.54846       -3.69644
C         -3.20183       -1.76249       -2.02229
O         -2.61819       -1.02458       -0.95539
C         -4.61185       -1.25145       -2.26017
H         -5.06575       -1.72822       -3.14273
H         -5.23978       -1.48043       -1.38655
H         -4.61620       -0.16317       -2.40070
C         -3.23747       -3.22893       -1.59997
H         -2.22091       -3.61685       -1.43895
H         -3.77725       -3.30857       -0.64531
H         -3.74487       -3.86434       -2.34084
H          3.61230       -4.88223        1.39562
H          4.70766        1.62203        3.71118
C          1.53264        0.70209       -2.16000
C          2.28717       -0.48933       -2.12121
C          2.06072        1.89842       -1.65769
N          1.85323       -1.65121       -2.69829
C          3.55562       -0.44264       -1.49102
C          3.32132        1.91769       -1.07996
H          1.47559        2.81567       -1.71183
H          0.83654       -1.70778       -2.80709
H          2.28566       -2.48227       -2.31145
C          4.07091        0.74155       -0.98747
O          4.26192       -1.61080       -1.37991
Cl         3.97153        3.40715       -0.45848
H          5.05155        0.73644       -0.50955
C          5.11300       -1.88222       -2.47259
H          4.54851       -1.93775       -3.41951
H          5.89492       -1.10932       -2.57265
H          5.59183       -2.85213       -2.27964
