99
Int1_comp163_7_Sub9.log	Energy: -1857453.0591974
N          1.63274       -1.37113        0.78549
C          2.52245       -0.91467        1.68458
C          3.40808       -1.77967        2.33212
C          3.37152       -3.13514        2.03312
C          2.44417       -3.59396        1.10266
C          1.58947       -2.67494        0.50797
H          0.83122       -2.98263       -0.21318
H          2.37443       -4.64999        0.83840
H          4.10851       -1.39878        3.07501
C          2.45587        0.53053        1.98472
N          1.36060        1.17192        1.53536
C          1.16677        2.45639        1.84980
C          2.09243        3.18362        2.59025
C          3.25860        2.54985        3.01272
C          3.43958        1.20491        2.71420
H          4.34447        0.68614        3.02996
H          1.89792        4.23281        2.81794
H          0.22839        2.88750        1.48875
Ir         0.09447        0.06507        0.07928
H          0.28358        1.65830       -2.33352
B         -1.20148       -0.77728        1.35881
O         -0.86988       -1.92865        2.06689
C         -1.82817       -2.11026        3.10939
C         -2.03878       -3.59617        3.33263
H         -2.30636       -4.10323        2.39683
H         -2.83225       -3.77774        4.07376
H         -1.10877       -4.04748        3.70925
C         -1.24973       -1.46246        4.36423
H         -1.89084       -1.61462        5.24495
H         -0.26543       -1.90945        4.56756
H         -1.10668       -0.38227        4.21341
C         -3.07297       -1.34181        2.54973
O         -2.45773       -0.33722        1.73931
C         -3.93721       -2.20692        1.63933
H         -3.32263       -2.67566        0.85973
H         -4.48048       -2.97862        2.20444
H         -4.67219       -1.56535        1.13224
C         -3.93040       -0.66228        3.60213
H         -3.35828        0.08741        4.16361
H         -4.77193       -0.14787        3.11474
H         -4.34553       -1.39701        4.30919
B         -1.40509        1.41490       -0.20749
O         -2.27300        1.51868       -1.29282
C         -3.40209        2.30716       -0.91376
C         -3.89046        3.08545       -2.12280
H         -3.08414        3.67547       -2.57703
H         -4.26429        2.38419       -2.88337
H         -4.71470        3.76264       -1.85124
C         -4.48092        1.33634       -0.44231
H         -5.40755        1.85492       -0.15557
H         -4.71250        0.64222       -1.26341
H         -4.11026        0.74091        0.40293
C         -2.82252        3.18981        0.25088
O         -1.72380        2.40600        0.71846
C         -3.77822        3.40958        1.41177
H         -4.04732        2.45526        1.88143
H         -3.29127        4.03552        2.17447
H         -4.69536        3.92256        1.08377
C         -2.27252        4.52628       -0.23248
H         -1.58676        4.38879       -1.07878
H         -3.07628        5.21355       -0.53502
H         -1.70837        4.99727        0.58649
B         -0.96821       -0.98369       -1.29316
O         -0.60567       -1.08134       -2.64422
C         -1.67204       -1.69180       -3.37519
C         -2.53834       -0.56967       -3.93634
H         -2.92440        0.05819       -3.12212
H         -1.91201        0.06961       -4.57596
H         -3.37158       -0.95479       -4.54238
C         -1.08776       -2.52114       -4.50446
H         -0.59416       -1.85853       -5.23061
H         -1.87670       -3.07705       -5.03414
H         -0.33894       -3.23518       -4.13777
C         -2.39385       -2.51708       -2.25746
O         -2.10643       -1.75835       -1.08564
C         -3.89922       -2.62786       -2.41951
H         -4.16114       -3.12532       -3.36602
H         -4.31949       -3.22078       -1.59376
H         -4.37162       -1.63778       -2.39644
C         -1.78353       -3.90213       -2.05902
H         -0.68845       -3.83776       -1.97481
H         -2.17185       -4.32856       -1.12249
H         -2.02922       -4.58839       -2.88273
H          4.05657       -3.82674        2.52804
H          4.02020        3.09522        3.57451
C          1.25737        1.51153       -1.86673
C          1.91164        0.27580       -1.96759
C          1.95480        2.58635       -1.29121
C          3.22586        0.11520       -1.49866
H          1.41023       -0.53520       -2.49767
C          3.23904        2.43946       -0.78815
Cl         1.20324        4.13685       -1.18934
C          3.85759        1.19681       -0.89911
C          3.96634       -1.17423       -1.70985
H          3.76930        3.26866       -0.32105
F          5.09276        1.06566       -0.42291
F          4.52231       -1.63287       -0.58189
F          4.95737       -1.02961       -2.59584
F          3.15878       -2.13238       -2.17117
