101
Int1_comp171_9_Sub14.log	Energy: -1435832.7676560
N          1.61562       -1.81839       -0.10627
C          2.76153       -1.71761        0.59005
C          3.61186       -2.81939        0.73587
C          3.25747       -4.03263        0.16108
C          2.04998       -4.12607       -0.52768
C          1.25469       -2.99241       -0.62835
H          0.28378       -3.00972       -1.12678
H          1.71981       -5.06334       -0.97784
H          4.53729       -2.73117        1.30367
C          3.02842       -0.40826        1.22033
N          2.03562        0.49820        1.13630
C          2.16636        1.67960        1.74715
C          3.31492        2.02647        2.45180
C          4.36619        1.11617        2.51051
C          4.21900       -0.11931        1.89328
H          5.03514       -0.84019        1.91200
H          3.37760        3.00402        2.93249
H          1.30556        2.35007        1.65751
Ir         0.31340       -0.04362       -0.17678
H         -0.09868        1.98228       -2.17231
B         -0.79054       -0.94524        1.27806
O         -0.58102       -2.27516        1.61165
C         -1.30689       -2.56756        2.80732
C         -1.82560       -3.99125        2.73158
H         -2.40134       -4.15265        1.81142
H         -2.46393       -4.22734        3.59678
H         -0.97840       -4.69310        2.73019
C         -0.32977       -2.41716        3.96920
H         -0.78256       -2.69419        4.93244
H          0.53398       -3.07386        3.78868
H          0.03911       -1.38307        4.03681
C         -2.41521       -1.46252        2.79929
O         -1.76179       -0.39979        2.09557
C         -3.63731       -1.85525        1.97704
H         -3.33213       -2.20515        0.98145
H         -4.23830       -2.62968        2.47607
H         -4.26448       -0.96259        1.83698
C         -2.83316       -0.96887        4.17186
H         -1.99147       -0.51667        4.71202
H         -3.61747       -0.20464        4.06931
H         -3.24112       -1.79337        4.77659
B         -0.98080        1.49376        0.25209
O         -2.27235        1.66179       -0.21381
C         -2.76897        2.94144        0.18871
C         -2.60421        3.88586       -0.99694
H         -1.54429        4.03022       -1.24855
H         -3.11036        3.44747       -1.86929
H         -3.04472        4.87380       -0.79923
C         -4.23825        2.80153        0.54575
H         -4.63771        3.74202        0.95493
H         -4.81562        2.55107       -0.35661
H         -4.39187        2.00100        1.28063
C         -1.83579        3.30496        1.39476
O         -0.64706        2.56201        1.08068
C         -2.35508        2.77910        2.72796
H         -2.58192        1.70775        2.65901
H         -1.56697        2.90564        3.48504
H         -3.24555        3.33056        3.06373
C         -1.49434        4.77885        1.51223
H         -0.95559        5.15036        0.63246
H         -2.40819        5.37580        1.65616
H         -0.84947        4.93739        2.38962
B         -1.21339       -0.67259       -1.36441
O         -1.44111       -0.20861       -2.66171
C         -2.68698       -0.72762       -3.13381
C         -3.76297        0.30682       -2.82477
H         -3.81973        0.49412       -1.74435
H         -3.48552        1.25487       -3.30821
H         -4.74817       -0.00125       -3.20439
C         -2.59242       -0.95501       -4.63162
H         -2.47313        0.01165       -5.14245
H         -3.50666       -1.43205       -5.01691
H         -1.73099       -1.58294       -4.89445
C         -2.83765       -2.02994       -2.27804
O         -2.11513       -1.69892       -1.09091
C         -4.26556       -2.38896       -1.90959
H         -4.87442       -2.56143       -2.81038
H         -4.27476       -3.31204       -1.31102
H         -4.73297       -1.59517       -1.31374
C         -2.14026       -3.23413       -2.90460
H         -1.11213       -2.97991       -3.20347
H         -2.09164       -4.04013       -2.15742
H         -2.67495       -3.61221       -3.78813
H          3.91212       -4.90078        0.26304
H          5.29517        1.36302        3.02862
C          0.89678        1.67475       -1.85233
C          1.41060        0.44112       -2.31584
C          1.81961        2.64062       -1.34457
C          2.77960        0.12074       -2.18879
H          0.77191       -0.18035       -2.94305
C          3.15546        2.31516       -1.17818
C          1.37921        3.96288       -1.03565
C          3.63352        1.04603       -1.56956
C          3.30839       -1.16169       -2.74654
H          3.84870        3.04537       -0.75924
N          1.03553        5.04853       -0.81371
C          5.00028        0.70319       -1.33711
N          6.09767        0.39373       -1.11782
H          2.49361       -1.80290       -3.10432
H          3.89044       -1.71752       -1.99579
H          3.99125       -0.96312       -3.58809
