99
Int1_comp167_7_Sub9.log	Energy: -1755579.2244822
N         -0.41173       -2.25716       -0.78063
C         -1.32776       -2.36900       -1.75864
C         -1.61189       -3.60409       -2.34672
C         -0.93042       -4.73336       -1.91223
C          0.02950       -4.59813       -0.91357
C          0.26133       -3.33724       -0.37981
H          1.02000       -3.16507        0.38544
H          0.59900       -5.45424       -0.54920
H         -2.34376       -3.67830       -3.15080
C         -1.94160       -1.10512       -2.21491
N         -1.33800        0.02394       -1.79536
C         -1.75541        1.20915       -2.25021
C         -2.84015        1.32978       -3.11233
C         -3.51142        0.17560       -3.50911
C         -3.05218       -1.05761       -3.06281
H         -3.56038       -1.97589       -3.35647
H         -3.15323        2.31826       -3.45176
H         -1.17778        2.07049       -1.90108
Ir         0.13581       -0.21117       -0.14835
H         -1.13506        1.32256        2.02204
B          1.81873       -0.39762       -1.22055
O          2.08251       -1.54256       -1.96409
C          3.19020       -1.27968       -2.82611
C          4.00215       -2.55104       -2.98759
H          4.29254       -2.96171       -2.01220
H          4.91141       -2.36835       -3.58067
H          3.39959       -3.30925       -3.50949
C          2.61476       -0.84132       -4.16958
H          3.39723       -0.68603       -4.92689
H          1.93074       -1.62356       -4.53002
H          2.03807        0.08896       -4.06009
C          3.92395       -0.11844       -2.07488
O          2.83935        0.52310       -1.39844
C          4.89102       -0.62286       -1.00966
H          4.38798       -1.33265       -0.33925
H          5.78147       -1.09266       -1.45291
H          5.21720        0.23061       -0.39740
C          4.60926        0.89165       -2.97734
H          3.89265        1.38599       -3.64584
H          5.09092        1.66809       -2.36459
H          5.38921        0.41002       -3.58703
B          0.80369        1.70816        0.05667
O          1.48174        2.27770        1.12546
C          2.09215        3.50316        0.72648
C          1.94748        4.50426        1.86179
H          0.89752        4.64033        2.15095
H          2.49149        4.13090        2.74172
H          2.36939        5.48350        1.58913
C          3.57049        3.20803        0.48788
H          4.12531        4.10256        0.16942
H          4.01443        2.84775        1.42762
H          3.67949        2.41496       -0.26271
C          1.30940        3.88179       -0.59440
O          0.67303        2.65669       -0.95685
C          2.19855        4.30543       -1.75401
H          2.89310        3.50155       -2.02721
H          1.57100        4.52231       -2.63138
H          2.77275        5.21267       -1.51231
C          0.22220        4.92643       -0.37624
H         -0.44865        4.63698        0.44285
H          0.64587        5.91648       -0.15254
H         -0.38194        5.00969       -1.29225
B          1.36458       -0.58403        1.41762
O          1.01778       -0.36665        2.75544
C          2.16235       -0.59269        3.57891
C          2.86402        0.74762        3.76622
H          3.19062        1.14966        2.79834
H          2.14506        1.46402        4.18836
H          3.72566        0.66907        4.44549
C          1.70780       -1.14066        4.91948
H          1.12547       -0.37358        5.45079
H          2.56976       -1.40979        5.54928
H          1.06928       -2.02584        4.79992
C          2.99182       -1.59124        2.70576
O          2.60488       -1.22483        1.38023
C          4.49764       -1.45816        2.84100
H          4.81873       -1.63790        3.87859
H          4.99678       -2.19750        2.19707
H          4.83641       -0.46080        2.53358
C          2.56998       -3.04341        2.91316
H          1.47705       -3.14911        2.84127
H          3.02745       -3.65921        2.12437
H          2.89492       -3.43580        3.88791
H         -1.13929       -5.70771       -2.35901
H         -4.38289        0.23279       -4.16516
C         -1.83972        0.64906        1.53443
C         -1.74643       -0.73037        1.77077
C         -2.93981        1.12440        0.80139
C         -2.71164       -1.61711        1.26889
H         -0.96385       -1.08643        2.44074
C         -3.87913        0.25947        0.25683
I         -3.21038        3.18666        0.54793
C         -3.74610       -1.10737        0.49531
C         -2.67238       -3.07508        1.62925
H         -4.72426        0.61143       -0.33478
F         -4.65711       -1.92685       -0.02306
F         -2.79609       -3.86878        0.56056
F         -3.66318       -3.39725        2.46683
F         -1.52394       -3.39847        2.23293
