110
Int1_comp9_0_Sub21.log	Energy: -1701758.5053976
N          0.89362       -2.09906        0.05491
C          1.88950       -2.22716        0.94749
C          2.48945       -3.46827        1.18619
C          2.06809       -4.57705        0.46540
C          1.05615       -4.42089       -0.47875
C          0.49272       -3.16197       -0.64405
H         -0.31014       -2.98078       -1.36147
H          0.69696       -5.26039       -1.07579
H          3.27616       -3.56685        1.93376
C          2.28824       -0.99271        1.65453
N          1.52016        0.08959        1.42897
C          1.78369        1.23192        2.06800
C          2.85317        1.35937        2.94880
C          3.67999        0.26074        3.16204
C          3.38981       -0.93206        2.51218
H          4.02495       -1.80461        2.66095
H          3.03281        2.31291        3.44788
H          1.08718        2.04993        1.86073
Ir        -0.11813       -0.13537       -0.06434
H          0.90405       -0.56586       -2.71460
B         -1.51588       -0.78938        1.22130
O         -1.66537       -2.14476        1.50622
C         -2.50299       -2.27975        2.65247
C         -3.33874       -3.53825        2.50776
H         -3.88555       -3.54137        1.55614
H         -4.06109       -3.63384        3.33307
H         -2.68177       -4.42066        2.52367
C         -1.58415       -2.39138        3.86637
H         -2.14150       -2.57144        4.79751
H         -0.89235       -3.23144        3.70545
H         -0.98426       -1.47687        3.98461
C         -3.31604       -0.94081        2.62881
O         -2.39569       -0.04816        1.99632
C         -4.55798       -1.02172        1.74758
H         -4.29006       -1.37831        0.74415
H         -5.33041       -1.67137        2.18505
H         -4.97798       -0.01218        1.63327
C         -3.67455       -0.38757        3.99630
H         -2.77758       -0.17341        4.59159
H         -4.23189        0.55336        3.87705
H         -4.31167       -1.09189        4.55334
B         -1.06377        1.65746        0.10866
O         -2.00763        2.21928       -0.75311
C         -2.63944        3.31615       -0.09505
C         -3.06106        4.34427       -1.12896
H         -2.22247        4.63889       -1.77327
H         -3.84516        3.91768       -1.77196
H         -3.47063        5.24535       -0.64689
C         -3.86123        2.76000        0.62998
H         -4.45048        3.55128        1.11688
H         -4.49828        2.24762       -0.10548
H         -3.55247        2.01340        1.37495
C         -1.51838        3.78854        0.89021
O         -0.80273        2.57676        1.13145
C         -2.02166        4.33167        2.21554
H         -2.57857        3.56393        2.76717
H         -1.16880        4.64332        2.83725
H         -2.67178        5.20747        2.06558
C         -0.55340        4.77966        0.24746
H         -0.21922        4.41887       -0.73577
H         -1.00865        5.77226        0.11617
H          0.33161        4.88910        0.89180
B         -1.58244       -0.49676       -1.40996
O         -1.33713       -0.65294       -2.78355
C         -2.58617       -0.60591       -3.47797
C         -2.82648        0.84970       -3.86743
H         -2.86347        1.48326       -2.96913
H         -1.98236        1.18965       -4.48589
H         -3.75224        0.97667       -4.44805
C         -2.50258       -1.48082       -4.71480
H         -1.77162       -1.05622       -5.41878
H         -3.47587       -1.53512       -5.22653
H         -2.17887       -2.50010       -4.46628
C         -3.58217       -1.10678       -2.37954
O         -2.94327       -0.68365       -1.18046
C         -4.96643       -0.48571       -2.44608
H         -5.45840       -0.70924       -3.40541
H         -5.59313       -0.89073       -1.63770
H         -4.91463        0.60288       -2.31769
C         -3.69204       -2.62845       -2.32684
H         -2.69571       -3.09309       -2.29340
H         -4.22272       -2.91301       -1.40656
H         -4.24243       -3.03716       -3.18718
H          2.52560       -5.55357        0.63847
H          4.54204        0.32841        3.82904
C          1.54062        0.06652       -2.09433
C          2.82939       -0.31921       -1.67784
C          1.15781        1.38451       -1.81239
C          3.69147        0.55081       -0.98548
S          3.61266       -1.85353       -1.87835
C          2.04225        2.27371       -1.15121
H          0.22173        1.76184       -2.22592
N          4.89704       -0.00187       -0.61443
C          3.30083        1.89146       -0.72410
C          5.00349       -1.23014       -1.00004
H          1.70089        3.29259       -0.97034
C          4.27664        2.82231       -0.03991
C          6.18475       -2.09864       -0.74100
H          5.90599       -2.98924       -0.15597
H          6.92783       -1.51852       -0.17938
H          6.64053       -2.44916       -1.67992
H          4.70779        2.24721        0.79802
C          5.43053        3.17570       -0.98240
H          6.16783        3.81493       -0.47122
H          5.94459        2.26827       -1.32792
H          5.05804        3.72222       -1.86348
C          3.62980        4.08094        0.52165
H          2.78087        3.84855        1.18153
H          4.36455        4.66088        1.10044
H          3.25744        4.73770       -0.28073
