95
Int1_comp15_0_Sub2.log	Energy: -1661771.6240415
N          0.49148       -2.48105        0.23945
C          1.65819       -2.84771        0.80300
C          1.86488       -4.16634        1.21711
C          0.85259       -5.10329        1.05187
C         -0.35125       -4.69983        0.48379
C         -0.49104       -3.37349        0.09320
H         -1.42114       -2.98516       -0.32524
H         -1.18026       -5.39500        0.34388
H          2.80941       -4.45974        1.67315
C          2.67585       -1.78868        0.96510
N          2.31433       -0.55140        0.58055
C          3.17217        0.45904        0.72414
C          4.45758        0.28500        1.22740
C          4.85222       -0.99070        1.61143
C          3.94690       -2.03829        1.48813
H          4.23661       -3.04477        1.78764
H          5.12845        1.14211        1.29848
H          2.78934        1.44121        0.44273
Ir         0.26755       -0.37974       -0.34244
H         -0.20061        0.81693       -2.76240
B         -0.58997       -0.04301        1.50737
O         -0.15012       -0.78712        2.58742
C         -0.64524       -0.16360        3.77959
C         -0.89473       -1.22935        4.82825
H         -1.54606       -2.02392        4.44202
H         -1.35815       -0.79664        5.72804
H          0.06088       -1.68706        5.12346
C          0.43217        0.81187        4.24290
H          0.16926        1.29971        5.19280
H          1.37029        0.25591        4.38582
H          0.61233        1.58278        3.47865
C         -1.92738        0.55984        3.25301
O         -1.56299        0.85364        1.89681
C         -3.14512       -0.35451        3.19985
H         -2.91468       -1.28343        2.65943
H         -3.51876       -0.59914        4.20476
H         -3.94509        0.15823        2.64758
C         -2.26649        1.85240        3.97060
H         -1.45130        2.58306        3.89333
H         -3.16677        2.29963        3.52483
H         -2.47085        1.66530        5.03600
B          0.06005        1.67980       -0.17534
O         -0.81499        2.50714       -0.83390
C         -0.68496        3.83855       -0.32643
C         -0.82893        4.81106       -1.48315
H         -0.12406        4.57874       -2.29126
H         -1.84770        4.74270       -1.89189
H         -0.66226        5.84749       -1.15204
C         -1.80956        4.04775        0.68091
H         -1.80054        5.06376        1.10181
H         -2.77124        3.89292        0.17150
H         -1.74202        3.31094        1.49151
C          0.73936        3.81539        0.33522
O          0.91016        2.42171        0.63542
C          0.85491        4.60347        1.62718
H          0.15380        4.23501        2.38719
H          1.87485        4.50553        2.02740
H          0.65877        5.67270        1.45542
C          1.85251        4.20997       -0.62776
H          1.80215        3.61392       -1.54989
H          1.81167        5.27854       -0.88361
H          2.82741        4.01393       -0.15641
B         -1.68049       -0.41514       -0.94021
O         -2.22662        0.21832       -2.03807
C         -3.64959        0.15362       -1.94400
C         -4.10549        1.41418       -1.21648
H         -3.68893        1.44625       -0.19936
H         -3.71353        2.28584       -1.75863
H         -5.20182        1.48819       -1.16539
C         -4.23510        0.10226       -3.34240
H         -4.03429        1.05255       -3.85806
H         -5.32554       -0.04537       -3.31060
H         -3.78353       -0.70361       -3.93527
C         -3.85890       -1.14244       -1.09191
O         -2.66467       -1.17036       -0.29948
C         -5.06580       -1.11238       -0.17333
H         -5.99695       -1.01828       -0.75282
H         -5.11654       -2.04693        0.40498
H         -5.00739       -0.27858        0.53661
C         -3.87428       -2.41117       -1.93779
H         -3.00128       -2.44699       -2.60461
H         -3.83491       -3.28577       -1.27055
H         -4.78757       -2.48985       -2.54521
H          1.00285       -6.13636        1.37277
H          5.85494       -1.17378        2.00332
C          0.72789        0.39251       -2.37299
C          0.96877       -1.03367       -2.42580
N          1.82951        1.22353       -2.39891
C          2.32607       -1.45701       -2.39517
Cl        -0.15976       -2.15696       -3.15678
C          3.01143        0.68666       -2.30833
N          3.33732       -0.63366       -2.28996
H          2.54380       -2.52983       -2.47231
C          4.13400        1.60114       -2.21788
N          5.02532        2.33066       -2.09637
