96
Int1_comp41_0_Sub14.log	Energy: -1318766.0745806
N         -2.48437       -0.33266        0.50799
C         -3.08845       -1.53378        0.43128
C         -4.42354       -1.69755        0.81373
C         -5.13464       -0.60519        1.29389
C         -4.48775        0.62337        1.39156
C         -3.16064        0.71506        0.98591
H         -2.58431        1.64124        1.05863
H         -4.99911        1.50770        1.77566
H         -4.90711       -2.67044        0.72825
C         -2.25443       -2.64788       -0.05915
N         -1.04115       -2.31072       -0.53436
C         -0.19437       -3.26969       -0.92186
C         -0.53008       -4.61681       -0.89043
C         -1.79219       -4.98156       -0.42671
C         -2.65964       -3.98544        0.00072
H         -3.63938       -4.24802        0.39915
H          0.19511       -5.36303       -1.21911
H          0.79270       -2.92374       -1.23754
Ir        -0.46483       -0.19335       -0.40069
H         -0.07705        1.65318       -2.45493
B          0.61210       -0.63643        1.27350
O          1.66885        0.07356        1.83117
C          2.02837       -0.52907        3.07394
C          3.53095       -0.41631        3.25693
H          4.06573       -0.82137        2.38820
H          3.86254       -0.95135        4.16025
H          3.81232        0.64184        3.36383
C          1.29962        0.23353        4.17637
H          1.56314       -0.13441        5.17894
H          1.57570        1.29622        4.11491
H          0.21033        0.16383        4.04369
C          1.49534       -1.98943        2.89370
O          0.38613       -1.79268        2.01343
C          2.48662       -2.89179        2.16445
H          2.81996       -2.41640        1.23055
H          3.35990       -3.13872        2.78632
H          1.97352       -3.82851        1.89961
C          1.00695       -2.65497        4.16668
H          0.18116       -2.09279        4.62151
H          0.63998       -3.66582        3.93498
H          1.82088       -2.74734        4.90238
B          1.36622       -0.30747       -1.26269
O          1.83508        0.46481       -2.32158
C          3.24159        0.26253       -2.44544
C          3.64959        0.46077       -3.89309
H          3.04869       -0.16118       -4.56941
H          3.49509        1.51219       -4.17645
H          4.71380        0.22048       -4.04114
C          3.92695        1.29198       -1.55169
H          5.02218        1.26100       -1.65117
H          3.56893        2.29113       -1.83597
H          3.65110        1.13442       -0.49922
C          3.40233       -1.19597       -1.90513
O          2.33603       -1.27606       -0.95808
C          4.71595       -1.47460       -1.19708
H          4.83899       -0.82347       -0.32224
H          4.73765       -2.51809       -0.84855
H          5.57103       -1.32329       -1.87397
C          3.14644       -2.25205       -2.97600
H          2.20163       -2.05302       -3.50312
H          3.95828       -2.29599       -3.71685
H          3.07161       -3.23854       -2.49375
B          0.05468        1.68551        0.21743
O         -0.61330        2.33582        1.26234
C         -0.24158        3.71448        1.27380
C         -1.31625        4.48029        0.50634
H         -1.39473        4.11606       -0.52785
H         -2.28833        4.31381        0.99594
H         -1.12451        5.56330        0.49457
C         -0.18093        4.19534        2.71241
H         -1.18741        4.16407        3.15592
H          0.18493        5.23215        2.76952
H          0.47327        3.55490        3.31738
C          1.13678        3.68882        0.52875
O          1.00399        2.54598       -0.31319
C          1.41453        4.90594       -0.33586
H          1.44234        5.82541        0.26925
H          2.39272        4.79078       -0.82557
H          0.65682        5.02121       -1.12164
C          2.31240        3.42955        1.46589
H          2.13744        2.51760        2.05247
H          3.21366        3.26221        0.85877
H          2.50106        4.27848        2.13952
H         -6.17973       -0.71545        1.59163
H         -2.09248       -6.03063       -0.38248
C         -1.04149        1.20331       -2.22851
O         -2.07439        2.07757       -2.01471
C         -1.57081       -0.04315       -2.57809
C         -3.24383        1.40591       -2.16937
C         -3.00408        0.11571       -2.52691
H         -1.02536       -0.84111       -3.07628
C         -4.48543        2.18472       -1.95399
H         -3.75885       -0.64331       -2.72073
H         -4.58086        2.98910       -2.70177
H         -4.49157        2.65909       -0.96085
H         -5.36243        1.52955       -2.03212
