101
Int1_comp63_3_Sub24.log	Energy: -1378121.0635965
N         -1.96475       -0.85461       -1.71175
C         -2.62233       -1.98396       -1.39463
C         -3.86615       -2.27464       -1.96523
C         -4.42434       -1.38361       -2.87248
C         -3.72320       -0.22481       -3.19915
C         -2.49289       -0.00259       -2.59310
H         -1.89329        0.88733       -2.80500
H         -4.11978        0.50143       -3.91038
H         -4.39690       -3.18942       -1.70256
C         -1.95021       -2.87084       -0.42072
N         -0.74826       -2.45563        0.02339
C         -0.07413       -3.19618        0.90874
C         -0.57212       -4.39901        1.39813
C         -1.81403       -4.84361        0.95055
C         -2.51094       -4.06972        0.03089
H         -3.48683       -4.39538       -0.32844
H          0.00813       -4.96934        2.12554
H          0.87320       -2.76784        1.24858
Ir        -0.14338       -0.38323       -0.53740
H          1.05653        0.28641       -3.03650
B         -1.27978        0.27097        0.99138
O         -2.66897        0.35548        0.86840
C         -3.23668        0.44867        2.17267
C         -4.48263        1.31282        2.11176
H         -4.26600        2.28692        1.65475
H         -4.90297        1.47742        3.11597
H         -5.24730        0.81452        1.49732
C         -3.59739       -0.97098        2.60443
H         -4.11057       -0.99521        3.57719
H         -4.26517       -1.40816        1.84719
H         -2.69671       -1.60017        2.66413
C         -2.05391        1.05034        3.00406
O         -0.91749        0.54798        2.30260
C         -2.00152        2.57286        2.93653
H         -2.02042        2.90727        1.89118
H         -2.82732        3.03961        3.49367
H         -1.05057        2.91429        3.37014
C         -1.98516        0.58397        4.44729
H         -1.85958       -0.50465        4.51080
H         -1.12165        1.05126        4.94368
H         -2.89243        0.87114        5.00119
B          1.40690       -0.03468        0.71769
O          2.28761        1.05431        0.73487
C          2.94233        1.10746        1.99985
C          4.33952        1.67360        1.81498
H          4.91319        1.10584        1.07068
H          4.26877        2.71513        1.46734
H          4.89657        1.67058        2.76460
C          2.11230        2.03010        2.88800
H          2.56711        2.17351        3.87951
H          2.03127        3.00867        2.39274
H          1.09400        1.63215        2.99734
C          2.89568       -0.39190        2.46256
O          1.75986       -0.89424        1.76321
C          2.66900       -0.58352        3.95287
H          1.70496       -0.15765        4.25813
H          2.65364       -1.65835        4.18884
H          3.47251       -0.11653        4.54330
C          4.10965       -1.19470        2.00808
H          4.28516       -1.07248        0.93043
H          5.02177       -0.90837        2.55271
H          3.91765       -2.26115        2.20163
B         -0.01532        1.59947       -0.90180
O          0.25734        2.17503       -2.15895
C          0.40102        3.58805       -1.99855
C          1.88022        3.87056       -1.75292
H          2.21900        3.35854       -0.84016
H          2.46126        3.47917       -2.60062
H          2.08597        4.94736       -1.66310
C         -0.06948        4.28466       -3.26153
H          0.59476        4.02258       -4.09856
H         -0.04912        5.37881       -3.14063
H         -1.08931        3.98117       -3.53254
C         -0.46913        3.85515       -0.72856
O         -0.32810        2.63393       -0.01499
C          0.00959        5.00008        0.14691
H          0.00672        5.95301       -0.40482
H         -0.65853        5.10500        1.01441
H          1.02193        4.81135        0.52612
C         -1.95038        4.03103       -1.05659
H         -2.31138        3.21159       -1.69501
H         -2.52754        3.99908       -0.12126
H         -2.15501        4.98883       -1.55759
H         -5.39701       -1.59417       -3.32242
H         -2.24008       -5.78024        1.31667
C          1.46807       -0.58843       -2.53865
C          0.97790       -1.88685       -2.40699
N          2.80175       -0.60747       -2.17636
C          2.03760       -2.70446       -1.90649
H          0.02145       -2.23937       -2.78504
C          3.12746       -1.86620       -1.77342
C          3.66022        0.54716       -2.10218
H          1.99295       -3.76276       -1.66661
O          4.37034       -2.07288       -1.31661
H          3.42038        1.14038       -1.20781
H          3.52364        1.16396       -3.00106
H          4.70316        0.21102       -2.05431
C          4.65334       -3.38330       -0.90502
H          3.98507       -3.69344       -0.08330
H          4.54460       -4.09533       -1.74153
H          5.69166       -3.39198       -0.55107
