104
Int1_comp34_0_Sub31.log	Energy: -1473091.0552670
N         -1.25966       -1.97936       -0.19712
C         -2.39643       -1.90806       -0.91075
C         -3.19799       -3.03759       -1.10414
C         -2.81356       -4.24783       -0.54056
C         -1.63659       -4.30210        0.20103
C         -0.88968       -3.13932        0.34483
H          0.03543       -3.11686        0.92355
H         -1.29580       -5.22875        0.66508
H         -4.10990       -2.97432       -1.69723
C         -2.72122       -0.58266       -1.47946
N         -1.80323        0.38113       -1.28449
C         -1.98862        1.59119       -1.82121
C         -3.11663        1.90319       -2.57148
C         -4.09818        0.93061       -2.74142
C         -3.89678       -0.32881       -2.19268
H         -4.65127       -1.10557       -2.31039
H         -3.22199        2.90048       -3.00199
H         -1.18342        2.30875       -1.63434
Ir        -0.08843       -0.11060        0.04454
H         -0.79207       -0.49737        2.78139
B          1.23194       -0.64190       -1.36019
O          1.34424       -1.96050       -1.79815
C          2.12876       -1.97999       -2.98815
C          2.95143       -3.25530       -3.01713
H          3.53927       -3.36637       -2.09693
H          3.63563       -3.26865       -3.87963
H          2.28159       -4.12441       -3.09774
C          1.15725       -1.95188       -4.16543
H          1.67165       -2.03541       -5.13429
H          0.46150       -2.79799       -4.06518
H          0.56508       -1.02486       -4.15805
C          2.96389       -0.65930       -2.86000
O          2.09433        0.16828       -2.08649
C          4.24980       -0.84921       -2.06248
H          4.02968       -1.31048       -1.09091
H          4.98791       -1.45452       -2.60934
H          4.69080        0.13792       -1.86190
C          3.26077        0.03711       -4.17628
H          2.33784        0.32292       -4.69704
H          3.83598        0.95479       -3.98348
H          3.85897       -0.60706       -4.83933
B          0.89105        1.66145        0.07954
O          1.80392        2.12503        1.03271
C          2.46546        3.27509        0.51026
C          2.87671        4.18190        1.65522
H          2.02650        4.41791        2.30872
H          3.64073        3.67906        2.26654
H          3.30736        5.12318        1.27986
C          3.69264        2.77712       -0.24841
H          4.30624        3.60383       -0.63652
H          4.30511        2.17440        0.43744
H          3.38521        2.12209       -1.07641
C          1.37412        3.86260       -0.44195
O          0.68311        2.68615       -0.85513
C          1.91391        4.57508       -1.66882
H          2.49752        3.88801       -2.29439
H          1.07887        4.95708       -2.27537
H          2.54861        5.42927       -1.38606
C          0.37270        4.75199        0.29035
H         -0.00151        4.25414        1.19688
H          0.80904        5.72008        0.57765
H         -0.48433        4.94389       -0.37288
B          1.42869       -0.67832        1.25481
O          1.24841       -1.06714        2.59346
C          2.52573       -1.12105        3.23146
C          2.78029        0.25354        3.84338
H          2.77495        1.02588        3.06030
H          1.96380        0.48073        4.54495
H          3.73088        0.29209        4.39600
C          2.49982       -2.18809        4.30998
H          1.80161       -1.89136        5.10666
H          3.49578       -2.31807        4.76107
H          2.16493       -3.15470        3.91140
C          3.47112       -1.42454        2.02308
O          2.78302       -0.80380        0.94389
C          4.86072       -0.82234        2.13579
H          5.39343       -1.21165        3.01732
H          5.44811       -1.07658        1.24102
H          4.81096        0.27166        2.20547
C          3.56957       -2.91529        1.70829
H          2.56944       -3.36686        1.63489
H          4.06275       -3.03976        0.73321
H          4.15068       -3.46388        2.46433
H         -3.42580       -5.14109       -0.68412
H         -5.01021        1.14641       -3.30249
C         -1.58735        0.02921        2.25222
C         -2.82243       -0.55391        1.96964
C         -1.49819        1.40296        1.94117
O         -3.20670       -1.85386        2.14324
C         -3.85524        0.13325        1.37207
C         -2.56095        2.11885        1.37041
H         -0.59260        1.93835        2.23075
C         -4.60017       -1.85674        1.91702
O         -4.90424       -0.72303        1.12787
C         -3.77711        1.49060        1.04010
H         -2.43037        3.18084        1.16323
H         -5.13134       -1.78618        2.88952
H         -4.88496       -2.77199        1.37929
N         -4.82711        2.10695        0.41428
H         -5.70106        1.60174        0.41971
C         -4.85427        3.51427        0.16085
H         -5.78293        3.77105       -0.36614
H         -4.01252        3.81335       -0.48721
H         -4.79995        4.12714        1.08164
