111
Int1_comp73_2_Sub20.log	Energy: -1691687.0757281
N         -0.54119       -2.57566       -0.57307
C          0.39166       -3.34573        0.01236
C          0.33650       -4.74043       -0.08433
C         -0.69309       -5.33303       -0.80315
C         -1.64939       -4.51886       -1.40649
C         -1.53363       -3.14245       -1.26046
H         -2.24724       -2.45264       -1.71522
H         -2.47629       -4.93824       -1.98157
H          1.08930       -5.35979        0.40252
C          1.44145       -2.63069        0.76944
N          1.30957       -1.29321        0.83847
C          2.17677       -0.57461        1.55833
C          3.24507       -1.16150        2.22649
C          3.41696       -2.53977        2.13804
C          2.50032       -3.28450        1.40684
H          2.60903       -4.36625        1.33344
H          3.92865       -0.53860        2.80465
H          1.97458        0.49945        1.59862
Ir        -0.38164       -0.39036       -0.28032
H         -0.19390       -0.51156       -3.14487
B         -1.71258       -0.49613        1.22037
O         -2.47687       -1.64425        1.42186
C         -3.07519       -1.57069        2.71410
C         -4.43739       -2.23807        2.66681
H         -5.05762       -1.81357        1.86699
H         -4.96850       -2.12759        3.62481
H         -4.31435       -3.31268        2.46539
C         -2.15386       -2.31717        3.67562
H         -2.56884       -2.37417        4.69278
H         -2.01047       -3.34084        3.29921
H         -1.16722       -1.83287        3.72284
C         -3.10399       -0.02662        2.97870
O         -1.97838        0.42408        2.22277
C         -4.34679        0.64544        2.40506
H         -4.46026        0.39293        1.34274
H         -5.25619        0.36664        2.95757
H         -4.22347        1.73606        2.46943
C         -2.91085        0.37616        4.42974
H         -1.94337        0.03180        4.81714
H         -2.93435        1.47294        4.51201
H         -3.71393       -0.03003        5.06408
B         -0.21041        1.56591        0.25485
O         -0.73881        2.68214       -0.39910
C         -0.74085        3.78400        0.50800
C         -0.58304        5.07482       -0.27491
H          0.29954        5.04757       -0.92710
H         -1.46746        5.22752       -0.91112
H         -0.49728        5.93981        0.40069
C         -2.08429        3.76312        1.23108
H         -2.19621        4.61263        1.92106
H         -2.88715        3.81058        0.48195
H         -2.20249        2.81950        1.78143
C          0.45795        3.43155        1.45535
O          0.50182        2.00690        1.37182
C          0.25371        3.82136        2.90940
H         -0.60688        3.29224        3.33742
H          1.14434        3.54529        3.49372
H          0.09931        4.90640        3.01446
C          1.78855        3.97549        0.94980
H          1.94161        3.72707       -0.10950
H          1.85532        5.06727        1.06732
H          2.60623        3.51366        1.52285
B         -2.00298        0.30206       -1.27767
O         -2.12768        0.28276       -2.67597
C         -3.25437        1.07984       -3.04763
C         -2.74166        2.49712       -3.28523
H         -2.27502        2.89165       -2.37073
H         -1.96908        2.46280       -4.06769
H         -3.54004        3.17700       -3.61792
C         -3.86806        0.51533       -4.31531
H         -3.16012        0.62652       -5.14996
H         -4.79232        1.05210       -4.57950
H         -4.09972       -0.55268       -4.20951
C         -4.15344        0.97167       -1.77262
O         -3.18721        0.80785       -0.74050
C         -4.99132        2.20341       -1.47895
H         -5.69606        2.40941       -2.29945
H         -5.57339        2.04480       -0.55905
H         -4.35693        3.08562       -1.32740
C         -5.03758       -0.27316       -1.77537
H         -4.44713       -1.17355       -1.99965
H         -5.47269       -0.40169       -0.77357
H         -5.85857       -0.19956       -2.50381
H         -0.74978       -6.42037       -0.88876
H          4.25137       -3.03410        2.64055
C          0.77576       -0.64848       -2.66305
C          1.44914       -1.89263       -2.73959
C          1.40065        0.46006       -2.07658
C          2.71693       -2.05635       -2.22364
H          0.94392       -2.73646       -3.21514
C          2.70787        0.28508       -1.57552
H          0.93974        1.44734       -2.13170
C          3.37244       -0.95685       -1.62510
H          3.22479       -3.02212       -2.28445
S          3.70258        1.48854       -0.82455
C          4.68213       -0.88714       -1.04363
C          5.00986        0.35374       -0.57881
H          5.35013       -1.74630       -0.98396
C          6.30307        0.83446        0.04164
C          7.18377       -0.36289        0.40092
H          8.11355       -0.01651        0.87726
H          6.67027       -1.03901        1.10154
H          7.46260       -0.94073       -0.49286
C          7.04142        1.72443       -0.97050
H          6.43209        2.59789       -1.24761
H          7.99008        2.08815       -0.54434
H          7.26520        1.16503       -1.89112
C          6.01126        1.64573        1.31081
H          6.95055        2.00393        1.76005
H          5.38560        2.52555        1.09406
H          5.48303        1.03557        2.05825
