103
Int1_comp22_6_Sub24.log	Energy: -1459882.9643397
N          1.60426       -1.44154        0.58748
C          2.68441       -0.99713        1.25450
C          3.70958       -1.87133        1.62794
C          3.59347       -3.22162        1.32944
C          2.44762       -3.67206        0.67870
C          1.48013       -2.74319        0.31890
H          0.57612       -3.02874       -0.22398
H          2.30807       -4.72625        0.43446
H          4.59946       -1.49886        2.13346
C          2.68414        0.44076        1.59390
N          1.62586        1.15273        1.15815
C          1.49323        2.43716        1.50898
C          2.44296        3.09030        2.28484
C          3.56836        2.38286        2.70381
C          3.68406        1.04254        2.36400
H          4.54705        0.46623        2.69476
H          2.29976        4.14022        2.54552
H          0.58915        2.93024        1.13617
Ir         0.16079        0.08290       -0.10132
H         -0.11184        0.11237       -2.91222
B         -1.05702       -0.24208        1.50142
O         -1.09816       -1.44591        2.19839
C         -1.73298       -1.21581        3.45646
C         -2.51344       -2.45312        3.85882
H         -3.21379       -2.75625        3.07068
H         -3.07873       -2.27984        4.78750
H         -1.81841       -3.28808        4.03214
C         -0.62398       -0.94098        4.46909
H         -1.01178       -0.82229        5.49159
H          0.07774       -1.78786        4.45750
H         -0.06334       -0.03450        4.19635
C         -2.60616        0.04947        3.15873
O         -1.84762        0.70025        2.13746
C         -3.96524       -0.29513        2.55877
H         -3.83946       -0.93576        1.67533
H         -4.62819       -0.78702        3.28577
H         -4.44819        0.63473        2.22464
C         -2.77367        0.99923        4.33085
H         -1.80595        1.38152        4.68020
H         -3.38260        1.86079        4.01997
H         -3.28467        0.50446        5.17132
B         -1.09407        1.57295       -0.65421
O         -1.94206        1.56531       -1.76572
C         -2.82633        2.68125       -1.66301
C         -3.23332        3.13103       -3.05323
H         -2.35795        3.31777       -3.68901
H         -3.83638        2.34546       -3.53228
H         -3.84180        4.04755       -3.01050
C         -4.04498        2.21433       -0.87160
H         -4.81658        2.99500       -0.79805
H         -4.47544        1.33743       -1.37514
H         -3.74756        1.89898        0.13897
C         -1.95355        3.70247       -0.86427
O         -1.15631        2.83535       -0.05752
C         -2.73247        4.64190        0.03755
H         -3.28426        4.08267        0.80352
H         -2.03962        5.32453        0.55211
H         -3.44294        5.25111       -0.54241
C         -1.00467        4.49015       -1.76322
H         -0.46353        3.81548       -2.44338
H         -1.53206        5.24475       -2.36528
H         -0.26575        5.00750       -1.13313
B         -1.27033       -1.14163       -0.87712
O         -0.99771       -2.19017       -1.78654
C         -2.24059       -2.66468       -2.31525
C         -2.53467       -1.84127       -3.56636
H         -2.63856       -0.77607       -3.30899
H         -1.69282       -1.94475       -4.26763
H         -3.44836       -2.17680       -4.07837
C         -2.10980       -4.13562       -2.65960
H         -1.39515       -4.26420       -3.48666
H         -3.07611       -4.55248       -2.98231
H         -1.74682       -4.71753       -1.80220
C         -3.22316       -2.33928       -1.14711
O         -2.63094       -1.17128       -0.58533
C         -4.64189       -2.01476       -1.57906
H         -5.10531       -2.86881       -2.09683
H         -5.25104       -1.78092       -0.69360
H         -4.66671       -1.14122       -2.24274
C         -3.23434       -3.42140       -0.07157
H         -2.21526       -3.64403        0.27548
H         -3.80341       -3.05500        0.79421
H         -3.70829       -4.34883       -0.42501
H          4.39271       -3.91394        1.60076
H          4.34453        2.86710        3.30022
C          0.83554       -0.06029       -2.40863
N          1.55399       -1.21803       -2.64408
C          1.69338        0.90332       -1.86218
C          2.83322       -1.06753       -2.17233
H          1.06288       -2.10018       -2.73462
C          2.99051        0.27481       -1.72593
H          1.47405        1.96561       -1.83052
C          3.86744       -1.99584       -2.04795
C          4.25431        0.62643       -1.21917
N          5.03967       -1.63941       -1.53951
H          3.73800       -3.03803       -2.36005
C          5.22865       -0.37833       -1.15526
O          4.62232        1.84116       -0.75743
H          6.21215       -0.10639       -0.75641
C          3.91383        2.98063       -1.16578
H          3.74818        2.98468       -2.25622
H          2.94394        3.07170       -0.65223
H          4.53064        3.84797       -0.89531
