97
Int1_comp175_5_Sub10.log	Energy: -1929977.3864147
N         -1.57995       -1.72378       -0.26365
C         -2.66879       -1.49467       -1.02073
C         -3.59992       -2.50663       -1.26886
C         -3.38477       -3.77231       -0.73878
C         -2.23710       -4.00168        0.01264
C         -1.36082       -2.94497        0.22410
H         -0.44768       -3.06657        0.80815
H         -2.02559       -4.97867        0.44831
H         -4.48204       -2.31088       -1.87727
C         -2.78263       -0.13816       -1.59713
N         -1.72943        0.67683       -1.39640
C         -1.71304        1.89427       -1.94862
C         -2.77784        2.37851       -2.69984
C         -3.89232        1.56344       -2.88395
C         -3.89141        0.28762       -2.33526
H         -4.75197       -0.36669       -2.46758
H         -2.72685        3.38141       -3.12653
H         -0.80190        2.47386       -1.77263
Ir        -0.17738       -0.03222        0.02223
H         -1.08413       -0.40748        2.76835
B          1.08348       -0.90859       -1.27760
O          0.86844       -2.20944       -1.71833
C          1.70294       -2.44548       -2.85290
C          2.13981       -3.89852       -2.84994
H          2.60859       -4.16941       -1.89530
H          2.85197       -4.10060       -3.66466
H          1.26290       -4.54715       -2.99336
C          0.86388       -2.14729       -4.09224
H          1.40445       -2.36847       -5.02424
H         -0.04335       -2.76834       -4.05922
H          0.55180       -1.09255       -4.10649
C          2.85593       -1.40715       -2.63671
O          2.18691       -0.36917       -1.91438
C          3.97277       -1.94532       -1.74964
H          3.56036       -2.33975       -0.81201
H          4.55912       -2.72396       -2.25928
H          4.64873       -1.11896       -1.48685
C          3.43306       -0.81888       -3.91156
H          2.66855       -0.28453       -4.48994
H          4.22656       -0.10029       -3.65806
H          3.87535       -1.60356       -4.54455
B          1.14431        1.52136       -0.06201
O          2.08712        1.89885        0.89266
C          3.06547        2.73520        0.27151
C          3.57074        3.74473        1.28669
H          2.74650        4.30929        1.74125
H          4.10405        3.21896        2.09240
H          4.27205        4.45502        0.82270
C          4.20363        1.82415       -0.17805
H          5.02515        2.38798       -0.64374
H          4.60018        1.29592        0.70095
H          3.82759        1.06736       -0.87969
C          2.26622        3.35152       -0.93339
O          1.23863        2.38314       -1.15133
C          3.06697        3.49145       -2.21726
H          3.40695        2.51102       -2.57329
H          2.43160        3.93249       -2.99978
H          3.93924        4.14788       -2.07553
C          1.59777        4.67656       -0.58816
H          1.02668        4.59959        0.34623
H          2.33157        5.48997       -0.48921
H          0.89622        4.94313       -1.39283
B          1.17828       -0.73261        1.36251
O          0.95993       -0.74505        2.74768
C          2.18280       -1.07518        3.41291
C          2.87450        0.23745        3.76408
H          3.06379        0.82481        2.85512
H          2.20221        0.82690        4.40501
H          3.81596        0.07514        4.30914
C          1.86643       -1.85988        4.67293
H          1.32775       -1.21572        5.38345
H          2.78936       -2.20699        5.16249
H          1.23221       -2.73019        4.46014
C          2.93790       -1.88335        2.30580
O          2.41702       -1.31342        1.10722
C          4.44720       -1.72168        2.31790
H          4.87528       -2.06884        3.27086
H          4.89146       -2.31685        1.50653
H          4.73340       -0.67410        2.16181
C          2.56857       -3.36437        2.29978
H          1.47665       -3.49558        2.32525
H          2.94213       -3.81859        1.37041
H          3.00434       -3.90604        3.15205
H         -4.10725       -4.57192       -0.91361
H         -4.75452        1.91437       -3.45529
C         -1.73170        0.25385        2.19030
C         -3.06287       -0.12533        1.89667
C         -1.27217        1.53783        1.86970
C         -3.90636        0.77838        1.24383
C         -3.52465       -1.42640        2.25945
C         -2.16818        2.43091        1.25355
H         -0.29226        1.87332        2.20928
C         -3.46498        2.06461        0.92491
Cl        -5.51459        0.31595        0.82161
N         -3.87093       -2.49132        2.56137
Cl        -1.64816        4.03157        0.87655
H         -4.13288        2.76595        0.42635
