96
Int1_comp27_2_Sub10.log	Energy: -2160456.6910584
N         -1.52891       -1.71759       -0.37864
C         -2.61661       -1.46286       -1.12782
C         -3.55023       -2.46454       -1.40800
C         -3.33017       -3.75008       -0.93036
C         -2.17948       -4.00652       -0.19116
C         -1.30817       -2.95511        0.06498
H         -0.39410       -3.09543        0.64334
H         -1.95817       -5.00242        0.19513
H         -4.43338       -2.24641       -2.00710
C         -2.72307       -0.09051       -1.66722
N         -1.66605        0.71222       -1.44038
C         -1.63874        1.94252       -1.96165
C         -2.69574        2.45128       -2.70824
C         -3.81332        1.64776       -2.91982
C         -3.82401        0.35860       -2.40248
H         -4.68776       -0.28676       -2.55599
H         -2.63655        3.46466       -3.10811
H         -0.72682        2.51327       -1.76226
Ir        -0.13231       -0.03556       -0.01745
H         -1.08536       -0.38553        2.72316
B          1.16938       -0.86055       -1.30182
O          0.99867       -2.16437       -1.75812
C          1.85874       -2.36749       -2.87879
C          2.33610       -3.80793       -2.87957
H          2.79480       -4.07348       -1.91851
H          3.06838       -3.98346       -3.68256
H          1.48037       -4.47951       -3.04425
C          1.03427       -2.08279       -4.13120
H          1.59740       -2.28098       -5.05504
H          0.14428       -2.72909       -4.11943
H          0.69288       -1.03716       -4.14272
C          2.97882       -1.29939       -2.63426
O          2.27003       -0.28684       -1.91530
C          4.09533       -1.81450       -1.73292
H          3.67800       -2.22474       -0.80425
H          4.70991       -2.57456       -2.23744
H          4.74542       -0.97259       -1.45464
C          3.56115       -0.68490       -3.89441
H          2.79195       -0.16759       -4.48197
H          4.32906        0.05403       -3.62131
H          4.03653       -1.45159       -4.52553
B          1.16830        1.53361       -0.00976
O          2.07309        1.89557        0.98885
C          3.05463        2.76775        0.42561
C          3.52685        3.73930        1.49211
H          2.68624        4.27365        1.95327
H          4.05168        3.18677        2.28547
H          4.22726        4.47742        1.07213
C          4.21163        1.88890       -0.03998
H          5.03915        2.48113       -0.45748
H          4.59058        1.32022        0.82129
H          3.85907        1.16473       -0.78710
C          2.27299        3.42302       -0.76783
O          1.28359        2.43645       -1.06481
C          3.10535        3.65536       -2.01750
H          3.48526        2.70602       -2.41520
H          2.48014        4.12024       -2.79440
H          3.95314        4.32761       -1.81406
C          1.55349        4.70647       -0.37171
H          0.95784        4.56154        0.53930
H          2.25797        5.53523       -0.20761
H          0.86593        4.99510       -1.18078
B          1.18801       -0.76666        1.33766
O          0.91613       -0.86187        2.71119
C          2.12424       -1.17909        3.40729
C          2.75362        0.13932        3.84458
H          2.95556        0.77435        2.97081
H          2.03606        0.67441        4.48416
H          3.67923       -0.01462        4.41862
C          1.79113       -2.03358        4.61664
H          1.20353       -1.44329        5.33519
H          2.70757       -2.37175        5.12440
H          1.19724       -2.91400        4.33871
C          2.94917       -1.90589        2.29416
O          2.45681       -1.29323        1.10578
C          4.45059       -1.69750        2.37614
H          4.85286       -2.08075        3.32656
H          4.94584       -2.23442        1.55367
H          4.70701       -0.63458        2.28603
C          2.63059       -3.39604        2.20126
H          1.54342       -3.56180        2.17329
H          3.05656       -3.79172        1.26768
H          3.04912       -3.96542        3.04418
H         -4.04822       -4.54528       -1.14181
H         -4.66950        2.01782       -3.48821
C         -1.75405        0.25599        2.14571
C         -3.05365       -0.17490        1.83324
C         -1.34503        1.55676        1.82302
Cl        -3.54554       -1.76179        2.28833
C         -3.92987        0.67682        1.16452
C         -2.26452        2.41176        1.19168
H         -0.37681        1.92581        2.16189
C         -3.53618        1.98349        0.84954
Cl        -5.50969        0.14914        0.71009
Cl        -1.80523        4.03470        0.81124
H         -4.23013        2.64948        0.33776
