110
Int1_comp152_9_Sub17.log	Energy: -1662596.3965652
N          0.17258       -2.36948        0.04532
C          1.29818       -2.67865        0.71337
C          1.66978       -4.01361        0.90785
C          0.84888       -5.02572        0.43039
C         -0.34153       -4.68491       -0.20923
C         -0.64224       -3.34011       -0.37582
H         -1.56807       -3.00565       -0.84725
H         -1.03185       -5.44567       -0.57646
H          2.58771       -4.25741        1.44137
C          2.04513       -1.54181        1.28845
N          1.47531       -0.33204        1.13810
C          2.01639        0.73633        1.73268
C          3.18027        0.65170        2.48598
C          3.81182       -0.58324        2.60649
C          3.23432       -1.69382        2.00675
H          3.71550       -2.66784        2.08160
H          3.59187        1.55045        2.94724
H          1.48426        1.67819        1.57496
Ir        -0.30828       -0.24416       -0.19553
H         -0.00947       -0.67392       -2.95063
B         -1.62297       -0.50779        1.35286
O         -2.02426       -1.77166        1.75805
C         -2.77257       -1.65473        2.96856
C         -3.88162       -2.69020        2.96256
H         -4.48550       -2.61390        2.04945
H         -4.53997       -2.57255        3.83705
H         -3.44443       -3.69919        2.99680
C         -1.80551       -1.91463        4.11956
H         -2.31208       -1.92048        5.09594
H         -1.33334       -2.89611        3.96594
H         -1.00959       -1.15558        4.13845
C         -3.25982       -0.16975        2.90999
O         -2.20561        0.45125        2.16666
C         -4.53692       -0.00017        2.09373
H         -4.43436       -0.49511        1.11771
H         -5.41881       -0.39584        2.61887
H         -4.69253        1.07255        1.90761
C         -3.39151        0.51409        4.25774
H         -2.42998        0.55218        4.78583
H         -3.74154        1.54756        4.11780
H         -4.12397       -0.00813        4.89238
B         -0.90786        1.69877        0.07455
O         -2.10457        2.28143       -0.31593
C         -2.05891        3.68846       -0.08799
C         -1.70100        4.35070       -1.41510
H         -0.70806        4.02803       -1.76174
H         -2.43474        4.04217       -2.17274
H         -1.70890        5.44842       -1.34747
C         -3.42756        4.15500        0.37541
H         -3.41385        5.22140        0.64824
H         -4.15768        4.01999       -0.43626
H         -3.77005        3.57178        1.23957
C         -0.92429        3.81988        0.98523
O         -0.12240        2.66813        0.70604
C         -1.43597        3.68139        2.41464
H         -2.02178        2.75888        2.52116
H         -0.57221        3.60821        3.09224
H         -2.04061        4.54771        2.72079
C         -0.06577        5.06607        0.85849
H          0.41384        5.13917       -0.12616
H         -0.66695        5.97404        1.01938
H          0.72708        5.04523        1.62085
B         -1.98608       -0.32181       -1.34489
O         -2.07459        0.12143       -2.66548
C         -3.43440        0.05268       -3.09695
C         -4.06342        1.42080       -2.85844
H         -4.01712        1.68552       -1.79362
H         -3.48194        2.17224       -3.41226
H         -5.10505        1.46073       -3.20945
C         -3.46773       -0.28709       -4.57630
H         -3.02395        0.53836       -5.15196
H         -4.50188       -0.42856       -4.92636
H         -2.89388       -1.19659       -4.79706
C         -4.01847       -1.05247       -2.15390
O         -3.19179       -0.93225       -0.99653
C         -5.46847       -0.84992       -1.75296
H         -6.12786       -0.85704       -2.63456
H         -5.78492       -1.66420       -1.08411
H         -5.60448        0.09830       -1.21805
C         -3.82055       -2.46297       -2.70236
H         -2.77775       -2.61812       -3.01736
H         -4.04960       -3.18547       -1.90489
H         -4.47755       -2.67345       -3.55891
H          1.12773       -6.07207        0.57227
H          4.75047       -0.68222        3.15464
C          0.82468       -0.40814       -2.30235
C          1.95263       -1.29471       -2.20071
C          0.97506        0.91379       -1.86237
N          3.09044       -0.95773       -1.66179
C          1.84838       -2.66493       -2.79575
C          2.26044        1.30912       -1.34084
H          0.28645        1.68291       -2.21429
C          3.27829        0.32039       -1.21246
H          1.84083       -2.59357       -3.89623
H          0.91533       -3.16563       -2.50007
H          2.71223       -3.26806       -2.49057
C          2.53702        2.63198       -0.97346
C          4.53256        0.68405       -0.64230
C          3.77970        2.97418       -0.48418
H          1.75133        3.38207       -1.06763
C          4.79969        2.01872       -0.30988
C          5.63325       -0.34149       -0.45810
H          3.98899        4.01368       -0.22009
C          6.12042        2.50806        0.22084
H          6.17864        3.60061        0.12331
H          6.97304        2.07014       -0.31492
H          6.24657        2.25453        1.28421
F          5.23651       -1.60378       -0.36987
F          6.32401       -0.10990        0.68002
F          6.52747       -0.27473       -1.45776
