109
Int1_comp5_11_Sub8.log	Energy: -1568816.6242556
N         -1.28934        1.91801       -0.27904
C         -2.44464        1.98351        0.40404
C         -3.30733        3.07385        0.25835
C         -2.94434        4.12220       -0.57605
C         -1.71630        4.06675       -1.23004
C         -0.92111        2.94306       -1.04867
H          0.05638        2.85006       -1.52475
H         -1.37417        4.87819       -1.87421
H         -4.25335        3.10718        0.79713
C         -2.71254        0.86141        1.32818
N         -1.76042       -0.08929        1.39617
C         -1.91374       -1.11893        2.23289
C         -3.03434       -1.25408        3.04685
C         -4.02553       -0.28169        2.98769
C         -3.85901        0.79414        2.12382
H         -4.61815        1.57357        2.06767
H         -3.12090       -2.11688        3.70857
H         -1.08646       -1.83429        2.24455
Ir        -0.03074        0.11853        0.00639
H         -0.63023       -1.09046       -2.54863
B          1.20083        1.16975        1.16648
O          1.07626        2.55121        1.29961
C          1.86508        2.97137        2.41159
C          2.42699        4.35175        2.12604
H          2.96744        4.36851        1.17098
H          3.11025        4.67588        2.92615
H          1.60394        5.07920        2.06328
C          0.94052        3.01603        3.62517
H          1.44780        3.40035        4.52241
H          0.09123        3.67596        3.39469
H          0.54115        2.01511        3.84586
C          2.93429        1.83076        2.50816
O          2.21258        0.70897        1.99589
C          4.12993        2.06568        1.59152
H          3.79054        2.27190        0.56781
H          4.76661        2.88831        1.94961
H          4.73404        1.14744        1.55739
C          3.40212        1.51166        3.91672
H          2.56984        1.18002        4.55084
H          4.14420        0.70013        3.88327
H          3.87817        2.38796        4.38331
B          1.10619       -1.46378        0.59247
O          2.19219       -2.05823       -0.05186
C          2.88804       -2.90585        0.86137
C          3.42790       -4.11095        0.11127
H          2.63181       -4.64527       -0.42264
H          4.17223       -3.78149       -0.62893
H          3.92154       -4.81454        0.79915
C          4.03959       -2.08585        1.43582
H          4.66239       -2.67146        2.12809
H          4.67352       -1.74328        0.60418
H          3.64940       -1.19460        1.94548
C          1.78112       -3.23784        1.92373
O          0.90463       -2.11885        1.81028
C          2.28656       -3.31605        3.35446
H          2.72700       -2.36177        3.66977
H          1.44728       -3.54075        4.02950
H          3.03771       -4.11289        3.46871
C          0.97134       -4.48553        1.58369
H          0.55277       -4.41945        0.56993
H          1.56846       -5.40496        1.67500
H          0.12673       -4.55816        2.28570
B          1.44472        0.35405       -1.35025
O          1.39739       -0.16508       -2.66159
C          2.67083        0.00735       -3.28805
C          3.47014       -1.27393       -3.07504
H          3.56318       -1.49276       -2.00257
H          2.92992       -2.11221       -3.53943
H          4.46767       -1.21691       -3.53462
C          2.46163        0.25248       -4.77195
H          2.02368       -0.64458       -5.23438
H          3.41743        0.46151       -5.27661
H          1.77933        1.09322       -4.95432
C          3.25708        1.22328       -2.49475
O          2.61890        1.09774       -1.22900
C          4.76226        1.18868       -2.29643
H          5.29152        1.17872       -3.26179
H          5.08399        2.08145       -1.74015
H          5.06185        0.30635       -1.71676
C          2.83792        2.56969       -3.08026
H          1.75313        2.59666       -3.26352
H          3.07771        3.35850       -2.35241
H          3.35568        2.79529       -4.02422
H         -3.60822        4.98000       -0.70305
H         -4.92253       -0.35766        3.60581
C         -1.50921       -1.26604       -1.92796
C         -2.57679       -0.34825       -1.96292
C         -1.62828       -2.49174       -1.21569
C         -3.68775       -0.66773       -1.18495
O         -2.60788        0.77646       -2.68732
C         -2.75455       -2.79253       -0.44841
O         -0.68071       -3.44340       -1.27797
C         -3.78346       -1.85141       -0.44660
O         -4.85029        0.02543       -1.01453
H         -2.82518       -3.73933        0.08419
C          0.32242       -3.34221       -2.26303
N         -5.02384       -1.86228        0.17654
C         -5.58872       -0.75822       -0.18757
H          0.93004       -4.25137       -2.17442
H          0.96296       -2.46558       -2.10188
H         -0.12473       -3.30381       -3.27184
C         -6.92885       -0.25759        0.18724
H         -7.40178       -0.97608        0.86582
H         -7.56006       -0.12799       -0.70503
H         -6.85449        0.72228        0.68304
C         -1.57678        0.98879       -3.62314
H         -0.58394        0.98392       -3.14838
H         -1.59061        0.21138       -4.40641
H         -1.77188        1.96725       -4.07892
