93
Int1_comp57_1_Sub2.log	Energy: -3688120.0738184
N         -1.92960       -1.15252       -1.66988
C         -2.64755       -2.18460       -1.20067
C         -3.79792       -2.62040       -1.86479
C         -4.19112       -1.97923       -3.03261
C         -3.42733       -0.91804       -3.50990
C         -2.30028       -0.53574       -2.79074
H         -1.66679        0.30035       -3.10190
H         -3.69596       -0.38658       -4.42417
H         -4.38539       -3.45104       -1.47509
C         -2.15523       -2.80933        0.04560
N         -1.08477       -2.23440        0.62868
C         -0.59441       -2.72250        1.77330
C         -1.15447       -3.83176        2.39595
C         -2.25544       -4.44719        1.80683
C         -2.76070       -3.92970        0.62152
H         -3.62090       -4.39753        0.14450
H         -0.72503       -4.19992        3.32882
H          0.25439       -2.17240        2.19151
Ir        -0.24899       -0.47224       -0.35779
H          0.91257       -0.28459       -2.84843
B         -1.68722        0.46136        0.85580
O         -3.01722        0.56093        0.47422
C         -3.81542        0.72790        1.65008
C         -4.99208        1.63033        1.33045
H         -4.66070        2.58548        0.90500
H         -5.59037        1.83354        2.23172
H         -5.64216        1.13959        0.59110
C         -4.31273       -0.65997        2.04520
H         -5.00398       -0.62528        2.89980
H         -4.84156       -1.10030        1.18693
H         -3.47275       -1.32218        2.30135
C         -2.78516        1.31641        2.67476
O         -1.54709        0.79277        2.18682
C         -2.68959        2.83630        2.62618
H         -2.47813        3.17386        1.60391
H         -3.60587        3.31971        2.99505
H         -1.85008        3.15997        3.25787
C         -2.97827        0.85180        4.10746
H         -2.88628       -0.23840        4.19294
H         -2.20583        1.30384        4.74658
H         -3.96254        1.15810        4.49389
B          1.04917        0.20423        1.05912
O          1.89181        1.29347        0.95595
C          2.32602        1.67718        2.25953
C          3.76253        2.16063        2.17189
H          4.41142        1.40617        1.70938
H          3.80205        3.06371        1.54539
H          4.15889        2.41493        3.16688
C          1.40982        2.81389        2.70267
H          1.68805        3.21220        3.68954
H          1.47863        3.62439        1.96318
H          0.36544        2.47474        2.72198
C          2.12328        0.35844        3.09959
O          1.16633       -0.36204        2.32110
C          1.53696        0.58016        4.48473
H          0.54401        1.04178        4.41951
H          1.42709       -0.38807        4.99588
H          2.19259        1.21632        5.09863
C          3.37438       -0.50384        3.19710
H          3.80316       -0.69689        2.20577
H          4.14557       -0.03845        3.82840
H          3.10375       -1.47314        3.64167
B         -0.33144        1.49452       -0.99369
O         -0.24702        1.84042       -2.34184
C         -0.34290        3.26462       -2.47405
C          1.07149        3.82410       -2.54136
H          1.62511        3.60170       -1.61875
H          1.60538        3.34334       -3.37268
H          1.06766        4.91122       -2.70829
C         -1.09136        3.58409       -3.75549
H         -0.49695        3.25154       -4.61923
H         -1.25854        4.66741       -3.85540
H         -2.06375        3.07562       -3.79480
C         -1.08424        3.66125       -1.15524
O         -0.68200        2.62167       -0.26005
C         -0.67479        4.99890       -0.56638
H         -0.89340        5.82261       -1.26312
H         -1.23562        5.17917        0.36243
H          0.39440        5.01557       -0.32108
C         -2.60179        3.59242       -1.29852
H         -2.92249        2.60936       -1.67158
H         -3.06443        3.73567       -0.31289
H         -2.98241        4.37653       -1.96879
H         -5.08748       -2.30685       -3.56377
H         -2.72004       -5.32252        2.26591
C          1.34414       -0.60990       -1.89915
C          1.08188       -1.90723       -1.34682
C          2.70217       -0.19498       -1.57879
S          2.48607       -2.52059       -0.43176
Cl         0.28890       -3.18299       -2.27322
C          3.39730       -1.09293       -0.83566
Cl         3.36393        1.28545       -2.11921
Br         5.14007       -0.89487       -0.21428
