99
Int1_comp165_4_Sub6.log	Energy: -2997135.3650473
N          1.98366        1.40982        0.81931
C          3.06569        1.58519        0.04246
C          4.03653        2.54032        0.35926
C          3.88126        3.31168        1.50478
C          2.75884        3.11217        2.30310
C          1.83313        2.15066        1.91744
H          0.93005        1.95927        2.49879
H          2.59321        3.69351        3.21121
H          4.89827        2.69192       -0.29050
C          3.14526        0.72598       -1.15861
N          2.04607        0.00113       -1.43858
C          2.02875       -0.78431       -2.51882
C          3.12307       -0.89821       -3.37115
C          4.27228       -0.16702       -3.08674
C          4.28202        0.65927       -1.96904
H          5.17189        1.23834       -1.72328
H          3.06352       -1.55095       -4.24361
H          1.08248       -1.30345       -2.69805
Ir         0.35857        0.12076        0.01893
H          0.72835       -1.64694        2.36292
B         -0.57396        1.75541       -0.62279
O         -0.21258        3.02016       -0.16411
C         -0.80009        3.99611       -1.02228
C         -1.15771        5.22200       -0.20259
H         -1.78465        4.95224        0.65681
H         -1.69206        5.96653       -0.81257
H         -0.23869        5.68961        0.18124
C          0.24476        4.35013       -2.07731
H         -0.09309        5.15539       -2.74620
H          1.16018        4.68230       -1.56543
H          0.49724        3.46860       -2.68511
C         -2.02347        3.21906       -1.61752
O         -1.55104        1.86922       -1.59878
C         -3.25587        3.29025       -0.72257
H         -3.00249        2.98190        0.30045
H         -3.69832        4.29737       -0.71456
H         -4.00893        2.58330       -1.09872
C         -2.38308        3.59171       -3.04440
H         -1.55157        3.39489       -3.73339
H         -3.24376        2.99168       -3.37522
H         -2.66187        4.65434       -3.11695
B         -1.09051       -0.86030       -1.01803
O         -2.32942       -1.32030       -0.59063
C         -3.14681       -1.63787       -1.71254
C         -3.98838       -2.85783       -1.37788
H         -3.36461       -3.69889       -1.04860
H         -4.68025       -2.61094       -0.55899
H         -4.58709       -3.17858       -2.24424
C         -4.04720       -0.43102       -1.95804
H         -4.75618       -0.59981       -2.78211
H         -4.61784       -0.23201       -1.03899
H         -3.43661        0.45738       -2.16649
C         -2.09165       -1.86302       -2.85847
O         -0.95811       -1.13977       -2.38359
C         -2.49674       -1.29168       -4.20776
H         -2.64517       -0.20637       -4.14658
H         -1.69986       -1.48281       -4.94215
H         -3.42139       -1.75994       -4.57880
C         -1.67057       -3.32017       -3.01993
H         -1.34197       -3.74430       -2.06133
H         -2.48146       -3.94266       -3.42608
H         -0.82191       -3.36773       -3.71938
B         -1.07272        0.20339        1.44166
O         -1.02100       -0.55309        2.62348
C         -2.30214       -0.50130        3.25711
C         -3.10835       -1.68989        2.74353
H         -3.21483       -1.63520        1.65057
H         -2.55749       -2.61265        2.97735
H         -4.10131       -1.74842        3.21367
C         -2.11697       -0.59471        4.76045
H         -1.71837       -1.58617        5.02168
H         -3.07665       -0.46579        5.28444
H         -1.41025        0.16055        5.12840
C         -2.85437        0.87056        2.74415
O         -2.21450        0.99919        1.47872
C         -4.35868        0.91345        2.54140
H         -4.89367        0.71545        3.48312
H         -4.65642        1.90966        2.18182
H         -4.67300        0.17694        1.79114
C         -2.40490        2.04941        3.60331
H         -1.31955        2.01371        3.77875
H         -2.62852        2.98332        3.06706
H         -2.91626        2.07496        4.57698
H          4.62750        4.06503        1.76631
H          5.15343       -0.23419       -3.72884
C          1.50126       -1.92282        1.63933
C          2.78453       -1.38793        1.73145
C          1.27883       -2.89268        0.65544
C          3.82846       -1.72010        0.86757
F          3.03714       -0.51892        2.71312
Br        -0.35240       -3.83270        0.64746
C          2.28353       -3.24998       -0.24453
C          3.53649       -2.65457       -0.13225
C          5.18822       -1.12036        1.05108
H          2.08770       -3.99895       -1.01249
H          4.32401       -2.93270       -0.83754
H          5.68765       -1.53574        1.94143
H          5.13061       -0.03172        1.19944
H          5.82516       -1.32221        0.17917
