98
Int1_comp169_6_Sub14.log	Energy: -1680776.2793526
N         -2.11795        0.53919       -1.54452
C         -3.32551        0.20842       -1.05486
C         -4.49052        0.78534       -1.56991
C         -4.39359        1.71025       -2.60229
C         -3.13530        2.03263       -3.10454
C         -2.02180        1.41953       -2.54281
H         -1.00607        1.63131       -2.88837
H         -3.01088        2.75137       -3.91591
H         -5.46702        0.52173       -1.16454
C         -3.32960       -0.77798        0.04875
N         -2.12280       -1.20513        0.46645
C         -2.03744       -2.09248        1.46230
C         -3.16691       -2.61194        2.08781
C         -4.42300       -2.18478        1.66590
C         -4.50502       -1.25364        0.63710
H         -5.47843       -0.90409        0.29421
H         -3.05188       -3.33690        2.89510
H         -1.01984       -2.35289        1.77101
Ir        -0.34591       -0.15503       -0.39673
H          1.15660       -0.99121       -2.75138
B         -0.63560        1.33983        0.90387
O         -1.54722        2.35714        0.63555
C         -1.81413        3.05397        1.85294
C         -2.05044        4.51994        1.54199
H         -1.21654        4.94048        0.96562
H         -2.17562        5.10674        2.46495
H         -2.96554        4.62713        0.94068
C         -3.06991        2.42956        2.45585
H         -3.39854        2.95009        3.36735
H         -3.87959        2.48371        1.71280
H         -2.90065        1.36944        2.69707
C         -0.52620        2.75575        2.69374
O         -0.13383        1.47819        2.18497
C          0.60751        3.73259        2.40282
H          0.79473        3.78875        1.32241
H          0.39728        4.73634        2.80063
H          1.52730        3.35634        2.87278
C         -0.75336        2.63855        4.18981
H         -1.45061        1.82508        4.42849
H          0.20165        2.42047        4.69011
H         -1.14775        3.57904        4.60460
B          1.12587       -0.72586        0.88968
O          2.47682       -0.41788        0.85088
C          3.07583       -0.75428        2.10141
C          4.49892       -1.22482        1.86008
H          4.53195       -2.04664        1.13425
H          5.09504       -0.39251        1.45702
H          4.96938       -1.55752        2.79816
C          3.07533        0.51808        2.94394
H          3.57345        0.37461        3.91432
H          3.60924        1.30181        2.38667
H          2.04619        0.86838        3.10164
C          2.10559       -1.85764        2.65584
O          0.87640       -1.54007        1.99656
C          1.87606       -1.79806        4.15665
H          1.42958       -0.83985        4.45113
H          1.18638       -2.60151        4.45639
H          2.81861       -1.93769        4.70803
C          2.50082       -3.27063        2.24370
H          2.66985       -3.34499        1.16151
H          3.40535       -3.61014        2.76979
H          1.67885       -3.95783        2.49383
B          1.06192        1.11022       -1.10574
O          1.57819        1.07403       -2.41185
C          2.69954        1.96364       -2.47604
C          3.93908        1.15092       -2.11627
H          3.84602        0.73810       -1.10083
H          4.02211        0.30386       -2.81229
H          4.85854        1.75066       -2.18700
C          2.81354        2.52045       -3.88215
H          3.05968        1.70846       -4.58229
H          3.61286        3.27501       -3.94293
H          1.87227        2.97926       -4.21284
C          2.33395        3.01155       -1.37504
O          1.58361        2.22470       -0.45572
C          3.52425        3.61460       -0.65046
H          4.18903        4.14574       -1.34920
H          3.17286        4.33584        0.10221
H          4.10016        2.83937       -0.12952
C          1.41503        4.11666       -1.88946
H          0.55284        3.69334       -2.42522
H          1.02632        4.68306       -1.03064
H          1.93894        4.81568       -2.55803
H         -5.29402        2.17453       -3.01022
H         -5.33214       -2.56820        2.13417
C          0.72180       -1.83685       -2.21705
C         -0.64458       -2.13974       -2.26903
C          1.53701       -2.76154       -1.54078
C         -1.15501       -3.28069       -1.62578
H         -1.31106       -1.52614       -2.87758
N          1.08163       -3.81826       -0.91117
Cl         3.25306       -2.54290       -1.57348
C         -0.21349       -4.04007       -0.93894
C         -2.59696       -3.67257       -1.66700
F         -0.63521       -5.10967       -0.26901
H         -2.72861       -4.65810       -2.14076
H         -3.18574       -2.93751       -2.23203
H         -3.02033       -3.74722       -0.65350
