96
Int1_comp16_3_Sub14.log	Energy: -1316380.1297832
N          2.17417       -0.69600        1.39034
C          3.25001       -1.23779        0.78699
C          4.49632       -1.26452        1.42135
C          4.62538       -0.72348        2.69424
C          3.50511       -0.16104        3.30087
C          2.29687       -0.16511        2.61212
H          1.38580        0.29137        3.01327
H          3.55924        0.28570        4.29506
H          5.36275       -1.69721        0.92182
C          3.02945       -1.77550       -0.57279
N          1.79369       -1.61188       -1.07410
C          1.50789       -2.07411       -2.29239
C          2.44841       -2.71544       -3.08874
C          3.73732       -2.88451       -2.58781
C          4.02961       -2.41352       -1.31467
H          5.02958       -2.54393       -0.90169
H          2.17011       -3.07322       -4.08131
H          0.47891       -1.92030       -2.62556
Ir         0.32110       -0.49628        0.15532
H          0.86221       -3.04630        2.48847
B          0.93796        1.29488       -0.55371
O          0.58260        2.56722       -0.10871
C          1.46669        3.52569       -0.67869
C          0.71053        4.81932       -0.92363
H         -0.20372        4.63818       -1.50309
H          1.33513        5.55020       -1.46063
H          0.41620        5.26454        0.03863
C          2.59307        3.75422        0.32653
H          3.28626        4.54621        0.00552
H          2.14785        4.04525        1.28914
H          3.16294        2.82703        0.48711
C          1.95159        2.78961       -1.97029
O          1.89192        1.42162       -1.56917
C          0.97945        2.96415       -3.13348
H         -0.04244        2.72241       -2.80789
H          1.00419        3.98320       -3.54766
H          1.25650        2.25742       -3.92994
C          3.36716        3.12125       -2.40537
H          4.09662        2.85671       -1.62863
H          3.61736        2.54937       -3.31142
H          3.47055        4.19255       -2.63829
B         -1.20101       -0.22027       -1.12854
O         -1.57830        0.91666       -1.83398
C         -2.60278        0.61335       -2.77228
C         -3.56257        1.78793       -2.84479
H         -3.92602        2.05959       -1.84565
H         -3.04128        2.66186       -3.26238
H         -4.42480        1.56189       -3.49120
C         -1.93632        0.39452       -4.12832
H         -2.66973        0.22198       -4.92991
H         -1.34779        1.28766       -4.38074
H         -1.24471       -0.46011       -4.09238
C         -3.22306       -0.69777       -2.18613
O         -2.08848       -1.26844       -1.52324
C         -3.74154       -1.68074       -3.21949
H         -2.94536       -2.01028       -3.89956
H         -4.14896       -2.57099       -2.71638
H         -4.55101       -1.23275       -3.81597
C         -4.28222       -0.42849       -1.12244
H         -3.88490        0.24588       -0.35038
H         -5.20063       -0.00498       -1.55469
H         -4.54510       -1.37899       -0.63256
B         -0.86982        0.58940        1.37637
O         -0.42887        1.16879        2.57610
C         -1.54359        1.69020        3.29555
C         -1.96614        0.63262        4.31157
H         -2.28185       -0.29003        3.80291
H         -1.10360        0.38865        4.94962
H         -2.78557        0.98003        4.95833
C         -1.12280        2.96613        4.00223
H         -0.38351        2.73298        4.78350
H         -1.98297        3.45679        4.48373
H         -0.66070        3.66936        3.29771
C         -2.59860        1.88911        2.15840
O         -2.23579        0.85788        1.24325
C         -4.04214        1.69491        2.58653
H         -4.32293        2.41594        3.36994
H         -4.70764        1.85570        1.72517
H         -4.21723        0.67830        2.96226
C         -2.43288        3.21766        1.42559
H         -1.39141        3.34552        1.09746
H         -3.05903        3.19622        0.52151
H         -2.74036        4.07470        2.04350
H          5.59256       -0.73455        3.20162
H          4.50775       -3.38154       -3.18124
C         -0.03252       -3.28057        1.91489
C         -0.93081       -4.35540        2.04450
N         -0.41836       -2.47961        0.92726
C         -1.88986       -4.14273        1.06019
H         -0.89645       -5.17678        2.75583
N         -1.52856       -3.01063        0.42557
C         -3.10751       -4.91090        0.68481
H         -1.96800       -2.49601       -0.36250
H         -3.07991       -5.22203       -0.37147
H         -4.02133       -4.31303        0.83095
H         -3.19266       -5.81429        1.30207
