100
Int1_comp15_2_Sub15.log	Energy: -1432831.3660455
N          1.15701       -2.13550        0.24198
C          2.32860       -2.11689        0.90487
C          2.94587       -3.31008        1.29769
C          2.33829       -4.52341        1.00573
C          1.11172       -4.52051        0.34409
C          0.55213       -3.30038       -0.01195
H         -0.42423       -3.22458       -0.49719
H          0.58423       -5.44722        0.11302
H          3.88889       -3.28848        1.84282
C          2.88561       -0.78556        1.21529
N          2.11038        0.26818        0.89772
C          2.51902        1.50222        1.19962
C          3.75106        1.75473        1.79379
C          4.57854        0.67880        2.09533
C          4.13533       -0.60785        1.81439
H          4.76631       -1.46500        2.04784
H          4.05351        2.78402        1.99026
H          1.81459        2.29909        0.95010
Ir         0.27042       -0.20275       -0.27710
H         -0.11778        1.14361       -2.65622
B         -0.90902       -0.39275        1.39748
O         -0.45948       -1.13013        2.48461
C         -1.31861       -0.84867        3.59477
C         -1.41154       -2.07986        4.47477
H         -1.71483       -2.96130        3.89506
H         -2.13291       -1.92786        5.29233
H         -0.42849       -2.28933        4.92181
C         -0.68710        0.31339        4.35563
H         -1.24297        0.56194        5.27159
H          0.33853        0.03274        4.63662
H         -0.62838        1.20758        3.71699
C         -2.64801       -0.44522        2.87773
O         -2.16066        0.13183        1.66214
C         -3.50242       -1.64761        2.49223
H         -2.90810       -2.38659        1.93672
H         -3.95778       -2.12787        3.37075
H         -4.30678       -1.30621        1.82537
C         -3.48384        0.58200        3.61822
H         -2.93224        1.51978        3.76350
H         -4.39125        0.80875        3.03964
H         -3.79460        0.19929        4.60262
B         -0.67417        1.62573       -0.12730
O         -1.67080        2.13967       -0.92988
C         -2.12818        3.37918       -0.38337
C         -2.43460        4.32917       -1.52715
H         -1.57182        4.44036       -2.19608
H         -3.27331        3.93135       -2.11732
H         -2.72282        5.32273       -1.15080
C         -3.39590        3.07944        0.40914
H         -3.83378        3.98841        0.84703
H         -4.13670        2.63277       -0.26987
H         -3.18804        2.34854        1.20176
C         -0.92351        3.81673        0.52458
O         -0.30641        2.56070        0.83390
C         -1.32194        4.49205        1.82460
H         -1.95241        3.83671        2.43940
H         -0.41874        4.73657        2.40300
H         -1.86665        5.42912        1.63271
C          0.11084        4.65726       -0.21561
H          0.45528        4.14537       -1.12577
H         -0.27886        5.65196       -0.47664
H          0.98841        4.79835        0.43360
B         -1.37558       -0.85836       -1.26154
O         -1.76190       -0.48538       -2.54261
C         -3.08297       -0.97479       -2.77707
C         -4.05345        0.10858       -2.31794
H         -3.94237        0.29639       -1.24063
H         -3.80271        1.04349       -2.83804
H         -5.09869       -0.15416       -2.53825
C         -3.25745       -1.25023       -4.25869
H         -3.20869       -0.30309       -4.81532
H         -4.23434       -1.71533       -4.46211
H         -2.46633       -1.90711       -4.64355
C         -3.12203       -2.24056       -1.85858
O         -2.22759       -1.86939       -0.80572
C         -4.48278       -2.55769       -1.26700
H         -5.21817       -2.76845       -2.05862
H         -4.41029       -3.44573       -0.62157
H         -4.85176       -1.72581       -0.65460
C         -2.54196       -3.47837       -2.53626
H         -1.55853       -3.25910       -2.97819
H         -2.41400       -4.27069       -1.78309
H         -3.20086       -3.86495       -3.32743
H          2.80980       -5.46138        1.30702
H          5.56107        0.83696        2.54483
C          0.85233        0.94757       -2.19712
C          1.42722       -0.35087       -2.27635
N          1.64987        2.04786       -1.96900
C          2.83732       -0.44195       -2.02594
H          0.91328       -1.15672       -2.80309
C          2.91532        1.80761       -1.76247
N          3.57056        0.63014       -1.76127
N          3.43648       -1.65390       -2.04295
C          3.74307        2.96509       -1.46275
N          4.39671        3.88000       -1.18534
H          2.83918       -2.45142       -2.20925
C          4.83415       -1.87214       -1.79448
H          4.98769       -2.51763       -0.91277
H          5.29526       -0.89525       -1.60315
H          5.33282       -2.33872       -2.65963
