103
Int1_comp75_3_Sub8.log	Energy: -1462271.5247849
N         -1.50890        1.96907       -0.13922
C         -2.62290        2.03101        0.60943
C         -3.36122        3.21405        0.70924
C         -2.93032        4.34476        0.02681
C         -1.76287        4.27043       -0.72693
C         -1.08297        3.06020       -0.77534
H         -0.14877        2.95208       -1.32804
H         -1.37547        5.13479       -1.26821
H         -4.25870        3.25724        1.32560
C         -2.98152        0.79602        1.33994
N         -2.09842       -0.21574        1.25500
C         -2.32905       -1.35430        1.91489
C         -3.46733       -1.54325        2.69180
C         -4.39553       -0.51048        2.78131
C         -4.14787        0.67517        2.10056
H         -4.86189        1.49643        2.15457
H         -3.61399       -2.49048        3.21304
H         -1.55095       -2.11712        1.81495
Ir        -0.31299        0.09780       -0.05253
H         -0.79880       -0.82509       -2.72440
B          0.87768        0.98689        1.27031
O          0.83999        2.36615        1.46379
C          1.54336        2.67624        2.66405
C          2.23027        4.01951        2.50034
H          2.85820        4.03365        1.60040
H          2.85619        4.25591        3.37465
H          1.47243        4.81058        2.39781
C          0.50973        2.74284        3.78547
H          0.95260        3.05141        4.74401
H         -0.26296        3.47440        3.50621
H          0.01935        1.76739        3.92051
C          2.51037        1.45272        2.80375
O          1.75686        0.41154        2.17589
C          3.79889        1.63124        2.00786
H          3.56926        1.89247        0.96580
H          4.45238        2.39683        2.45177
H          4.34278        0.67612        1.99604
C          2.82051        1.04309        4.23194
H          1.91072        0.75526        4.77452
H          3.49906        0.17717        4.22806
H          3.31653        1.86052        4.77786
B          0.77503       -1.57482        0.35652
O          1.97931       -1.98890       -0.20996
C          2.58926       -2.98305        0.60813
C          3.31353       -3.98214       -0.27912
H          2.65370       -4.38257       -1.05936
H          4.15941       -3.48600       -0.77738
H          3.71440       -4.81953        0.31268
C          3.58976       -2.27388        1.51498
H          4.14649       -2.98042        2.14838
H          4.30849       -1.73255        0.88198
H          3.07674       -1.53207        2.14067
C          1.36198       -3.57011        1.39045
O          0.42864       -2.49135        1.35886
C          1.64440       -3.92595        2.84009
H          1.95837       -3.04163        3.40867
H          0.73064       -4.32280        3.30777
H          2.42760       -4.69592        2.91629
C          0.72483       -4.75690        0.67697
H          0.52229       -4.51075       -0.37435
H          1.36283       -5.65191        0.71756
H         -0.23068       -4.99182        1.16885
B          1.24344        0.41169       -1.30264
O          1.25368        0.01324       -2.65123
C          2.55992        0.20388       -3.19787
C          3.30252       -1.12215       -3.08576
H          3.36310       -1.43441       -2.03554
H          2.72891       -1.89139       -3.62340
H          4.30995       -1.06844       -3.52436
C          2.43137        0.60710       -4.65696
H          1.98547       -0.22091       -5.22772
H          3.41791        0.82686       -5.09338
H          1.79055        1.48963       -4.78484
C          3.14499        1.31316       -2.25801
O          2.42912        1.10107       -1.04620
C          4.63351        1.19087       -1.98253
H          5.21745        1.25311       -2.91377
H          4.95735        2.00833       -1.32126
H          4.86292        0.24167       -1.48207
C          2.81651        2.72762       -2.73067
H          1.74552        2.82392       -2.96492
H          3.04794        3.43106       -1.91758
H          3.39464        3.01723       -3.62062
H         -3.49550        5.27691        0.09399
H         -5.30400       -0.62249        3.37755
C         -1.77620       -0.86089       -2.23703
C         -2.71717        0.18062       -2.31441
C         -2.22144       -2.02314       -1.59533
C         -3.98622        0.06960       -1.70196
O         -2.50716        1.33828       -2.96335
O         -1.52542       -3.17547       -1.48286
C         -3.48888       -2.17025       -1.00595
C         -4.37833       -1.08755       -1.05394
H         -4.65365        0.92888       -1.78526
C         -2.32178       -4.05903       -0.82225
C         -3.52300       -3.51786       -0.50074
H         -5.36899       -1.15634       -0.59929
H         -1.89338       -5.04330       -0.65878
H         -4.33693       -4.01386        0.02262
C         -1.37831        1.45005       -3.79461
H         -0.44052        1.29754       -3.24088
H         -1.41558        0.70919       -4.61252
H         -1.40732        2.46023       -4.22286
