100
Int1_comp43_4_Sub8.log	Energy: -1593207.5225431
N          1.29372       -2.16770        0.03868
C          2.52479       -2.17125        0.58592
C          3.17017       -3.37500        0.89041
C          2.52950       -4.57934        0.63840
C          1.24089       -4.55564        0.10814
C          0.65895       -3.32664       -0.17008
H         -0.36173       -3.23824       -0.54892
H          0.68533       -5.47435       -0.08660
H          4.16503       -3.36943        1.33420
C          3.10239       -0.85122        0.90570
N          2.31560        0.21223        0.66434
C          2.73078        1.43406        1.00852
C          3.96757        1.66183        1.59949
C          4.80731        0.57386        1.82921
C          4.36832       -0.69608        1.48365
H          5.00595       -1.56118        1.66185
H          4.26030        2.67693        1.87318
H          2.01260        2.23634        0.82185
Ir         0.37606       -0.22571       -0.32843
H          0.03013        1.05317       -2.78353
B         -0.55971       -0.42035        1.47662
O          0.05781       -1.10787        2.51743
C         -0.65782       -0.83025        3.72259
C         -0.57621       -2.03525        4.63961
H         -0.90753       -2.94741        4.12672
H         -1.19265       -1.89045        5.54028
H          0.46561       -2.18604        4.95918
C          0.00943        0.38326        4.36439
H         -0.43374        0.63611        5.33898
H          1.07564        0.15825        4.51420
H         -0.05980        1.25709        3.69918
C         -2.08620       -0.50815        3.17760
O         -1.78787        0.06474        1.90271
C         -2.91900       -1.76067        2.92640
H         -2.35887       -2.48503        2.31860
H         -3.23842       -2.23855        3.86434
H         -3.81389       -1.47762        2.35452
C         -2.87321        0.49037        4.00642
H         -2.35640        1.45670        4.06969
H         -3.85772        0.66162        3.54683
H         -3.03596        0.11132        5.02726
B         -0.53226        1.60892       -0.09377
O         -1.62593        2.13732       -0.75681
C         -2.09115        3.30506       -0.08257
C         -2.54799        4.31519       -1.12203
H         -1.75811        4.52667       -1.85385
H         -3.41074        3.90646       -1.66813
H         -2.85928        5.25991       -0.65017
C         -3.27250        2.89008        0.78904
H         -3.69104        3.74042        1.34728
H         -4.06247        2.48445        0.14152
H         -2.97213        2.09742        1.48674
C         -0.83560        3.74570        0.75604
O         -0.09121        2.53235        0.86235
C         -1.14681        4.24164        2.15821
H         -1.65738        3.46917        2.74704
H         -0.20852        4.49657        2.67345
H         -1.77823        5.14292        2.13293
C          0.03717        4.76164        0.02810
H          0.27679        4.40529       -0.98162
H         -0.44795        5.74650       -0.03849
H          0.98069        4.88147        0.58278
B         -1.39566       -0.82727       -1.10534
O         -1.97129       -0.41602       -2.30636
C         -3.30621       -0.91280       -2.37552
C         -4.21759        0.15636       -1.78308
H         -3.97431        0.32396       -0.72506
H         -4.03555        1.10111       -2.31393
H         -5.28132       -0.10886       -1.87546
C         -3.66793       -1.16809       -3.82727
H         -3.68474       -0.21342       -4.37309
H         -4.66490       -1.62747       -3.91222
H         -2.93611       -1.82318       -4.31831
C         -3.22497       -2.19340       -1.47827
O         -2.18689       -1.84889       -0.56121
C         -4.49070       -2.50850       -0.70110
H         -5.33436       -2.70463       -1.38072
H         -4.33253       -3.40520       -0.08357
H         -4.76114       -1.68290       -0.03143
C         -2.76836       -3.43007       -2.24758
H         -1.85327       -3.22400       -2.82152
H         -2.54804       -4.23417       -1.52909
H         -3.54026       -3.79536       -2.94074
H          3.02382       -5.52543        0.86915
H          5.79191        0.71097        2.28199
C          1.00434        0.74489       -2.39993
C          1.48117       -0.57288       -2.50238
C          2.09265        1.68498       -2.22037
S          3.23498       -0.61564       -2.36145
C          0.83558       -1.71189       -3.22808
C          3.32760        1.10480       -2.16483
O          1.80977        2.99485       -2.11321
H          1.24614       -1.79611       -4.24770
H         -0.24424       -1.53284       -3.29761
H          1.00602       -2.67462       -2.72210
H          4.28413        1.57755       -1.95477
C          2.89746        3.86507       -1.97481
H          3.46382        3.65936       -1.04916
H          3.58550        3.78485       -2.83525
H          2.49241        4.88350       -1.92611
