101
Int1_comp177_6_Sub7.log	Energy: -3037498.8455084
N          2.09295       -1.01824       -0.82625
C          3.06208       -1.33644        0.04899
C          4.19745       -2.04218       -0.35668
C          4.32225       -2.42091       -1.68736
C          3.30961       -2.08650       -2.58018
C          2.21333       -1.37724       -2.10493
H          1.40169       -1.06529       -2.76450
H          3.36879       -2.35153       -3.63645
H          4.98977       -2.27954        0.35204
C          2.83671       -0.90860        1.44639
N          1.70789       -0.21162        1.68226
C          1.39549        0.13915        2.93449
C          2.21997       -0.15099        4.01606
C          3.40815       -0.84007        3.78456
C          3.71409       -1.23094        2.48718
H          4.62379       -1.79603        2.28729
H          1.92290        0.15312        5.02124
H          0.42833        0.63762        3.05044
Ir         0.28926       -0.01250       -0.04235
H          0.68903        1.98675       -2.58153
B         -0.48530       -1.77410        0.48635
O          0.13130       -2.96187        0.11118
C         -0.38871       -4.01250        0.92637
C         -0.43151       -5.29370        0.11541
H         -0.97915       -5.14797       -0.82431
H         -0.90901       -6.10724        0.68294
H          0.59305       -5.60596       -0.13535
C          0.55947       -4.16565        2.11310
H          0.28039       -5.00734        2.76392
H          1.57484       -4.34377        1.72920
H          0.58197       -3.24574        2.71665
C         -1.78774       -3.44408        1.33961
O         -1.53798       -2.03446        1.34653
C         -2.86271       -3.71509        0.29314
H         -2.52479       -3.37921       -0.69639
H         -3.13721       -4.77946        0.25418
H         -3.76028       -3.13312        0.54612
C         -2.26687       -3.86355        2.71692
H         -1.57521       -3.53052        3.50160
H         -3.24940       -3.41184        2.91907
H         -2.37666       -4.95711        2.78051
B         -1.37717        0.75406        0.85285
O         -2.60600        1.05768        0.28043
C         -3.60089        1.19935        1.28826
C         -4.57797        2.28310        0.86409
H         -4.06221        3.22197        0.62487
H         -5.11389        1.95595       -0.03902
H         -5.32425        2.47720        1.64966
C         -4.32340       -0.14012        1.39403
H         -5.14933       -0.11053        2.12005
H         -4.73428       -0.39094        0.40531
H         -3.61373       -0.93224        1.66561
C         -2.74925        1.54372        2.56530
O         -1.45977        1.02499        2.23006
C         -3.22154        0.86489        3.84037
H         -3.18130       -0.22708        3.74174
H         -2.56816        1.15478        4.67725
H         -4.25024        1.16325        4.09403
C         -2.60527        3.04336        2.80143
H         -2.23355        3.55109        1.90054
H         -3.55930        3.50356        3.09677
H         -1.88287        3.21301        3.61400
B         -0.98421       -0.18024       -1.60809
O         -0.94789        0.57898       -2.78328
C         -2.14132        0.32751       -3.53073
C         -3.16224        1.37984       -3.10969
H         -3.36285        1.30523       -2.03150
H         -2.73628        2.37573       -3.30128
H         -4.10376        1.29052       -3.67168
C         -1.83382        0.44737       -5.01179
H         -1.56870        1.48782       -5.25103
H         -2.70940        0.17162       -5.61958
H         -0.98884       -0.19074       -5.30171
C         -2.52286       -1.11239       -3.05017
O         -1.98701       -1.14040       -1.73112
C         -4.01552       -1.38335       -2.98259
H         -4.48524       -1.27389       -3.97231
H         -4.19048       -2.41170       -2.63309
H         -4.50671       -0.70011       -2.27832
C         -1.82519       -2.21038       -3.84854
H         -0.74405       -2.02036       -3.91595
H         -1.96291       -3.16866       -3.32659
H         -2.22997       -2.30706       -4.86679
H          5.21097       -2.95774       -2.02426
H          4.08298       -1.08775        4.60694
C          1.48971        2.02235       -1.83752
N          2.68268        1.56463       -2.19987
C          1.20120        2.59070       -0.58061
C          3.64528        1.62427       -1.27525
C          2.21482        2.62668        0.41681
Br        -0.35983        3.66065       -0.50959
C          3.46627        2.10218        0.01515
C          4.94274        1.11702       -1.65259
N          2.10510        3.12175        1.66911
H          4.29820        2.09389        0.72270
N          5.98778        0.69626       -1.92377
H          2.96603        3.10616        2.19671
C          0.90936        3.44000        2.41153
H          1.14288        3.35269        3.48196
H          0.10450        2.72905        2.18598
H          0.54517        4.46138        2.21935
