99
Int1_comp27_4_Sub17.log	Energy: -2083528.5099114
N         -1.08583       -1.96429       -0.10657
C         -2.12893       -1.93603       -0.95413
C         -2.94178       -3.06079       -1.13017
C         -2.66292       -4.21943       -0.41882
C         -1.57101       -4.23459        0.44642
C         -0.80844       -3.08051        0.56920
H          0.04837       -3.02404        1.24377
H         -1.31254       -5.12295        1.02461
H         -3.79352       -3.02754       -1.80787
C         -2.34454       -0.66408       -1.67652
N         -1.46659        0.32160       -1.40960
C         -1.55590        1.48697       -2.05882
C         -2.55862        1.73970       -2.98753
C         -3.49157        0.74214       -3.25355
C         -3.37766       -0.47707       -2.59858
H         -4.09582       -1.27169       -2.79491
H         -2.60282        2.71019       -3.48374
H         -0.77802        2.21708       -1.81835
Ir         0.10863       -0.11192        0.09288
H         -0.55373       -0.25184        2.88967
B          1.43733       -0.80704       -1.24673
O          1.41817       -2.13979       -1.64349
C          2.20928       -2.26756       -2.82534
C          2.88726       -3.62495       -2.82189
H          3.45094       -3.78347       -1.89363
H          3.57385       -3.72828       -3.67615
H          2.12728       -4.41692       -2.89589
C          1.25626       -2.15422       -4.01213
H          1.76689       -2.31042       -4.97373
H          0.47166       -2.91779       -3.90561
H          0.76886       -1.16806       -4.02724
C          3.18016       -1.04281       -2.70848
O          2.39278       -0.11030       -1.96355
C          4.42634       -1.35453       -1.88770
H          4.14622       -1.77628       -0.91390
H          5.10272       -2.04348       -2.41461
H          4.96794       -0.41748       -1.69405
C          3.56733       -0.40675       -4.03132
H          2.68784       -0.03075       -4.56943
H          4.23731        0.44580       -3.84592
H          4.09939       -1.12427       -4.67491
B          1.20666        1.60386        0.02140
O          2.07273        2.10037        0.99760
C          2.91894        3.08146        0.39454
C          3.30593        4.11424        1.43671
H          2.42288        4.54445        1.92677
H          3.92479        3.63904        2.21223
H          3.89259        4.92967        0.98647
C          4.15649        2.34736       -0.11312
H          4.88997        3.03426       -0.56043
H          4.63143        1.83070        0.73264
H          3.86897        1.58257       -0.84810
C          2.01930        3.62012       -0.77077
O          1.17893        2.49804       -1.04645
C          2.77311        3.97833       -2.03989
H          3.27617        3.09702       -2.45705
H          2.06607        4.35228       -2.79541
H          3.51967        4.76541       -1.85214
C          1.12885        4.78058       -0.34356
H          0.58385        4.54429        0.58049
H          1.70718        5.70327       -0.18806
H          0.38468        4.96912       -1.13149
B          1.57844       -0.67718        1.37382
O          1.37442       -0.97254        2.73177
C          2.64798       -1.08565        3.37405
C          3.00634        0.29899        3.90467
H          3.05000        1.02489        3.07948
H          2.21584        0.62550        4.59665
H          3.96184        0.29899        4.44960
C          2.54542       -2.08401        4.51164
H          1.87702       -1.69000        5.29148
H          3.53091       -2.26342        4.96833
H          2.13671       -3.04394        4.16973
C          3.56111       -1.52890        2.18531
O          2.91855       -0.91362        1.07274
C          4.99507       -1.03745        2.26704
H          5.49845       -1.43069        3.16375
H          5.55444       -1.37809        1.38333
H          5.03739        0.05853        2.28962
C          3.53754       -3.03748        1.95185
H          2.50462       -3.41141        1.89887
H          4.01936       -3.25565        0.98778
H          4.07256       -3.58857        2.73915
H         -3.29349       -5.10286       -0.53878
H         -4.30147        0.90800       -3.96702
C         -1.35880        0.16421        2.28119
C         -2.54859       -0.55282        2.08563
C         -1.25137        1.46856        1.78104
C         -3.61147       -0.00936        1.38205
H         -2.64189       -1.56194        2.48650
C         -2.34468        2.03633        1.09895
H         -0.38937        2.08966        2.02600
C         -3.50935        1.30591        0.87606
C         -4.86756       -0.82274        1.19810
Cl        -2.21491        3.65526        0.52512
Cl        -4.80731        2.01279       -0.01014
F         -5.92249       -0.25605        1.78412
F         -4.73307       -2.04566        1.72199
F         -5.18089       -0.99427       -0.09456
