101
Int1_comp9_0_Sub18.log	Energy: -1916127.2262614
N          1.27310       -1.79148        0.29019
C          2.30975       -1.63958        1.13219
C          3.13056       -2.72206        1.46704
C          2.87757       -3.96714        0.90725
C          1.80972       -4.10341        0.02408
C          1.03128       -2.98607       -0.25137
H          0.17924       -3.03307       -0.93209
H          1.57376       -5.05981       -0.44471
H          3.95459       -2.59338        2.16831
C          2.50225       -0.28389        1.68774
N          1.54860        0.61596        1.38535
C          1.61587        1.84849        1.89619
C          2.66421        2.25536        2.71385
C          3.68058        1.34953        2.99990
C          3.59491        0.06177        2.48740
H          4.38235       -0.66226        2.69331
H          2.68462        3.27545        3.09935
H          0.78409        2.50737        1.62993
Ir        -0.03527       -0.03819       -0.04252
H          0.93018       -0.52248       -2.70843
B         -1.32867       -0.73933        1.32455
O         -1.28272       -2.06017        1.76136
C         -2.09465       -2.18092        2.92823
C         -2.74259       -3.55320        2.93883
H         -3.28241       -3.74209        2.00208
H         -3.44496       -3.65528        3.78040
H         -1.96687       -4.32620        3.04463
C         -1.17073       -2.02271        4.13296
H         -1.69824       -2.17237        5.08655
H         -0.36664       -2.76962        4.05779
H         -0.70645       -1.02543        4.13858
C         -3.09036       -0.98197        2.76597
O         -2.30762       -0.04649        2.01970
C         -4.30927       -1.33827        1.92183
H         -3.99514       -1.76795        0.96145
H         -4.98140       -2.03469        2.44458
H         -4.86814       -0.41781        1.70014
C         -3.52262       -0.33094        4.06742
H         -2.66486        0.07516        4.61880
H         -4.20822        0.50171        3.85118
H         -4.05249       -1.04926        4.71201
B         -1.24014        1.60040       -0.07200
O         -2.22708        1.92362       -1.00541
C         -3.02253        2.98766       -0.48302
C         -3.55948        3.82216       -1.63102
H         -2.75537        4.15605       -2.29980
H         -4.26309        3.22064       -2.22542
H         -4.09965        4.70615       -1.25842
C         -4.16870        2.34816        0.29489
H         -4.87396        3.09700        0.68498
H         -4.71160        1.66993       -0.37922
H         -3.77313        1.74304        1.12290
C         -2.00161        3.72080        0.44812
O         -1.14234        2.65184        0.84513
C         -2.60787        4.35062        1.68890
H         -3.07646        3.58947        2.32526
H         -1.82069        4.84544        2.27738
H         -3.36120        5.10806        1.42250
C         -1.15211        4.74207       -0.30223
H         -0.74198        4.30750       -1.22548
H         -1.72600        5.64184       -0.56831
H         -0.31076        5.04752        0.33774
B         -1.42801       -0.76575       -1.31702
O         -1.16657       -1.04543       -2.66826
C         -2.40992       -1.26885       -3.33894
C         -2.86722        0.07642       -3.89459
H         -2.99649        0.80166       -3.07807
H         -2.08587        0.46114       -4.56692
H         -3.80301       -0.00805       -4.46671
C         -2.19759       -2.26503       -4.46356
H         -1.54159       -1.82435       -5.22885
H         -3.15276       -2.52651       -4.94452
H         -1.72255       -3.18635       -4.10170
C         -3.31677       -1.77595       -2.16886
O         -2.74653       -1.11963       -1.04204
C         -4.77908       -1.38220       -2.28165
H         -5.23293       -1.79249       -3.19703
H         -5.33604       -1.77503       -1.41812
H         -4.89285       -0.29079       -2.28657
C         -3.19531       -3.27914       -1.93228
H         -2.14014       -3.58209       -1.86503
H         -3.67413       -3.52620       -0.97356
H         -3.68023       -3.86682       -2.72572
H          3.50726       -4.82308        1.15987
H          4.53519        1.64129        3.61370
C          1.53581        0.19288       -2.14989
C          2.86346       -0.07277       -1.76709
C          1.05289        1.48940       -1.92034
C          3.68871        0.88436       -1.14423
S          3.75679       -1.54835       -1.93719
C          1.87774        2.47992       -1.33473
H          0.07713        1.76980       -2.31929
N          4.94269        0.45039       -0.79891
C          3.16661        2.18358       -0.94303
C          5.12673       -0.78180       -1.14044
H          1.49290        3.48770       -1.17853
Cl         4.16552        3.38916       -0.21349
C          6.38021       -1.54643       -0.89647
H          6.19317       -2.42638       -0.26119
H          7.09879       -0.88614       -0.39492
H          6.82152       -1.90528       -1.83904
