103
Int1_comp36_6_Sub23.log	Energy: -1677895.1392981
N          0.88922       -2.20093        0.58518
C          1.92719       -2.22699        1.44117
C          2.39391       -3.43196        1.97466
C          1.77998       -4.62164        1.61067
C          0.69920       -4.57665        0.73370
C          0.28229       -3.34317        0.25000
H         -0.57871       -3.23507       -0.41527
H          0.17629       -5.48356        0.42573
H          3.22602       -3.43828        2.67787
C          2.50855       -0.91948        1.79839
N          1.82173        0.16475        1.39017
C          2.25528        1.38255        1.72556
C          3.41151        1.58895        2.46720
C          4.14911        0.47793        2.87134
C          3.69023       -0.78885        2.53695
H          4.25304       -1.67278        2.83527
H          3.72394        2.60553        2.71001
H          1.62907        2.21103        1.39221
Ir         0.15326       -0.20469       -0.01277
H          1.40311       -1.67040       -2.35342
B         -1.40048       -0.34114        1.24012
O         -1.31124       -1.00972        2.45527
C         -2.47326       -0.69135        3.22414
C         -2.82789       -1.87570        4.10268
H         -2.92689       -2.79457        3.51037
H         -3.77000       -1.69900        4.64439
H         -2.03172       -2.03571        4.84468
C         -2.12212        0.52598        4.07505
H         -2.94272        0.81398        4.74882
H         -1.23982        0.28288        4.68504
H         -1.86146        1.37988        3.43210
C         -3.51873       -0.35951        2.10847
O         -2.68702        0.16747        1.07479
C         -4.20456       -1.60281        1.55167
H         -3.46292       -2.35432        1.24676
H         -4.90233       -2.04933        2.27538
H         -4.77088       -1.31774        0.65342
C         -4.55303        0.68191        2.49493
H         -4.07986        1.63445        2.76550
H         -5.22725        0.86643        1.64535
H         -5.16234        0.33751        3.34480
B         -0.54384        1.70398       -0.09479
O         -0.88260        2.51942       -1.18350
C         -1.63367        3.63823       -0.70161
C         -1.38722        4.83266       -1.60516
H         -0.31865        5.07170       -1.69318
H         -1.76723        4.61365       -2.61362
H         -1.91138        5.72463       -1.22911
C         -3.10463        3.23703       -0.74538
H         -3.76603        4.05449       -0.42277
H         -3.36231        2.96852       -1.77913
H         -3.27958        2.35248       -0.11517
C         -1.09866        3.79232        0.76243
O         -0.69552        2.46249        1.07563
C         -2.13981        4.24209        1.77320
H         -2.96915        3.52626        1.82721
H         -1.68169        4.30604        2.77139
H         -2.54260        5.23414        1.51689
C          0.13410        4.68576        0.86382
H          0.90201        4.37853        0.14074
H         -0.10368        5.74590        0.69308
H          0.56018        4.58696        1.87334
B         -1.24148       -0.76326       -1.37283
O         -1.44675       -0.20534       -2.63198
C         -2.59865       -0.80128       -3.22570
C         -3.79714        0.06619       -2.85440
H         -3.92642        0.09879       -1.76257
H         -3.60298        1.09140       -3.19943
H         -4.72807       -0.28980       -3.31983
C         -2.42051       -0.83943       -4.73212
H         -2.40009        0.18755       -5.12516
H         -3.25199       -1.37446       -5.21647
H         -1.47652       -1.32425       -5.01297
C         -2.63520       -2.19907       -2.52762
O         -2.04986       -1.90720       -1.25866
C         -4.02320       -2.77599       -2.31841
H         -4.53433       -2.93541       -3.28041
H         -3.94814       -3.74713       -1.80673
H         -4.63937       -2.11579       -1.69572
C         -1.74179       -3.22367       -3.22203
H         -0.73432       -2.81563       -3.39157
H         -1.64730       -4.11254       -2.58027
H         -2.15480       -3.54514       -4.18936
H          2.13496       -5.57172        2.01570
H          5.07129        0.59516        3.44515
C          2.01751       -0.85818       -1.96464
C          3.27398       -1.13181       -1.41433
C          1.59318        0.47066       -2.09903
C          4.10654       -0.09580       -1.01113
Cl         3.80384       -2.78254       -1.25407
C          2.42763        1.53199       -1.67810
H          0.66246        0.69020       -2.62627
C          3.69401        1.23577       -1.13174
H          5.08987       -0.32120       -0.59272
N          2.02302        2.83640       -1.80481
N          4.49773        2.31606       -0.70069
H          2.50821        3.46096       -1.16705
H          1.00942        2.95265       -1.82750
H          5.14667        2.01091        0.01810
C          5.19095        3.04095       -1.75342
H          5.73766        3.89211       -1.31978
H          4.45748        3.44164       -2.46869
H          5.90632        2.41714       -2.32409
