99
Int1_comp173_5_Sub6.log	Energy: -1670710.0534497
N         -1.77438        1.76345       -0.18351
C         -2.90797        1.70222        0.53529
C         -3.78953        2.78570        0.58689
C         -3.47499        3.95007       -0.10200
C         -2.27725        4.01158       -0.80962
C         -1.45254        2.89349       -0.81730
H         -0.48833        2.89023       -1.32874
H         -1.97659        4.91226       -1.34692
H         -4.70670        2.72734        1.17216
C         -3.12230        0.44995        1.29239
N         -2.09920       -0.42523        1.28347
C         -2.19392       -1.56331        1.97759
C         -3.32592       -1.88561        2.72037
C         -4.39639       -0.99630        2.73101
C         -4.29353        0.18639        2.00891
H         -5.12126        0.89499        1.99625
H         -3.35793       -2.82405        3.27633
H         -1.31433       -2.21416        1.92538
Ir        -0.36807        0.05581       -0.04537
H         -0.44242       -1.66414       -2.46490
B          0.75731        1.14993        1.18140
O          0.62509        2.53149        1.26351
C          1.38454        3.00095        2.37592
C          1.98689        4.34904        2.02521
H          2.54875        4.29403        1.08415
H          2.65855        4.70432        2.82190
H          1.18395        5.09063        1.89870
C          0.42182        3.13726        3.55186
H          0.90639        3.56919        4.43996
H         -0.40692        3.79543        3.25166
H         -0.00291        2.15912        3.82175
C          2.42600        1.84844        2.57519
O          1.69781        0.71249        2.10287
C          3.65125        1.99947        1.67955
H          3.34381        2.16451        0.63752
H          4.30567        2.81995        2.00954
H          4.22367        1.06100        1.71097
C          2.84486        1.60811        4.01389
H          1.98875        1.32968        4.64200
H          3.57458        0.78591        4.05449
H          3.32082        2.50492        4.43974
B          0.93899       -1.42336        0.45692
O          2.26766       -1.56316        0.07656
C          2.82096       -2.75572        0.62528
C          2.83885       -3.80363       -0.48326
H          1.82247       -4.00374       -0.84822
H          3.42692       -3.41425       -1.32652
H          3.29365       -4.74886       -0.15192
C          4.24069       -2.46477        1.08350
H          4.68505       -3.33701        1.58728
H          4.86449       -2.22142        0.21050
H          4.26712       -1.60708        1.76740
C          1.81944       -3.09740        1.78711
O          0.62318       -2.44518        1.35879
C          2.21549       -2.47277        3.12138
H          2.37267       -1.39207        3.00384
H          1.38892       -2.61477        3.83376
H          3.11794       -2.93823        3.54469
C          1.53564       -4.57889        1.96495
H          1.09271       -5.01382        1.06039
H          2.45483       -5.13137        2.21335
H          0.82284       -4.72001        2.79136
B          1.07919        0.51264       -1.38213
O          1.21795       -0.11769       -2.62899
C          2.43416        0.31216       -3.24374
C          3.51475       -0.70011       -2.88133
H          3.63716       -0.75489       -1.79124
H          3.19238       -1.69318       -3.22697
H          4.47762       -0.46173       -3.35681
C          2.24030        0.35601       -4.74909
H          2.06612       -0.66245       -5.12643
H          3.13550        0.75515       -5.25055
H          1.37673        0.97227       -5.03221
C          2.66146        1.70566       -2.56851
O          2.02117        1.54055       -1.30585
C          4.11691        2.07530       -2.34460
H          4.66477        2.12471       -3.29832
H          4.17907        3.06332       -1.86443
H          4.61318        1.34939       -1.68844
C          1.93999        2.84048       -3.29153
H          0.88912        2.57728       -3.48477
H          1.95503        3.73105       -2.64592
H          2.41692        3.09652       -4.24908
H         -4.15253        4.80614       -0.07338
H         -5.30476       -1.21850        3.29562
C         -1.44369       -1.64041       -2.02889
C         -2.28604       -0.54763       -2.30182
C         -1.93715       -2.73523       -1.30509
C         -3.57944       -0.58066       -1.76199
C         -1.90190        0.53831       -3.25810
C         -3.23067       -2.74809       -0.79849
Cl        -0.93957       -4.13155       -1.08145
C         -4.05846       -1.64759       -1.02439
F         -4.38776        0.46289       -1.98626
H         -3.58909       -3.61152       -0.23748
H         -5.07786       -1.61473       -0.63668
H         -0.81249        0.56975       -3.37770
H         -2.26923        1.51674       -2.92204
H         -2.36033        0.34264       -4.24176
