109
Int1_comp51_2_Sub11.log	Energy: -1932215.9366425
N          0.31362        2.22620        0.86493
C          1.20252        2.87196        0.09059
C          1.48930        4.22492        0.30337
C          0.85435        4.90255        1.33440
C         -0.05301        4.21293        2.13617
C         -0.29291        2.87384        1.86089
H         -0.99221        2.28021        2.45380
H         -0.57163        4.70075        2.96281
H          2.20221        4.74657       -0.33435
C          1.82841        2.07607       -0.98531
N          1.42305        0.79617       -1.08667
C          1.93768        0.00759       -2.03440
C          2.89921        0.45817       -2.93195
C          3.32604        1.78114       -2.84627
C          2.78159        2.60014       -1.86515
H          3.10297        3.63773       -1.78059
H          3.29371       -0.22179       -3.68854
H          1.52917       -1.00453       -2.07747
Ir        -0.20531        0.17081        0.28208
H          0.55231       -0.05670        2.96600
B         -1.63081        1.00544       -0.92860
O         -1.84785        2.38299       -0.92831
C         -2.64953        2.71875       -2.06034
C         -3.54473        3.89066       -1.70376
H         -4.12883        3.68180       -0.79841
H         -4.23743        4.12626       -2.52637
H         -2.92742        4.78060       -1.51020
C         -1.69113        3.10536       -3.18387
H         -2.22036        3.45260       -4.08351
H         -1.04156        3.91791       -2.82584
H         -1.04983        2.25422       -3.45692
C         -3.39797        1.37393       -2.34031
O         -2.45137        0.41110       -1.87323
C         -4.66383        1.22030       -1.50396
H         -4.44504        1.39324       -0.44196
H         -5.46075        1.90160       -1.83699
H         -5.02713        0.18677       -1.59638
C         -3.69514        1.09981       -3.80349
H         -2.77296        1.04317       -4.39604
H         -4.21603        0.13551       -3.89909
H         -4.34495        1.88029       -4.22875
B         -0.84118       -1.55021       -0.62585
O         -1.61825       -2.56147       -0.06473
C         -2.16896       -3.35712       -1.11488
C         -2.29079       -4.79227       -0.63369
H         -1.33287       -5.17711       -0.26097
H         -3.01777       -4.84017        0.19060
H         -2.64735       -5.45172       -1.43971
C         -3.55035       -2.78812       -1.42473
H         -4.06713       -3.36173       -2.20822
H         -4.15798       -2.82315       -0.50924
H         -3.46620       -1.73560       -1.72682
C         -1.13846       -3.13575       -2.28310
O         -0.53934       -1.88488       -1.94003
C         -1.76691       -2.99607       -3.65986
H         -2.43436       -2.12614       -3.69622
H         -0.97563       -2.84607       -4.40954
H         -2.33260       -3.89919       -3.93606
C         -0.03954       -4.19013       -2.31567
H          0.42367       -4.31015       -1.32772
H         -0.42052       -5.16569       -2.65213
H          0.74474       -3.86620       -3.01599
B         -1.78799       -0.19131        1.49350
O         -1.65449       -0.49368        2.85590
C         -2.91899       -0.94590        3.34772
C         -2.94054       -2.46357        3.19361
H         -2.81090       -2.74193        2.13752
H         -2.09418       -2.88397        3.75678
H         -3.86887       -2.90708        3.58300
C         -3.05442       -0.55721        4.80806
H         -2.30809       -1.10129        5.40557
H         -4.05272       -0.81498        5.19403
H         -2.88705        0.51769        4.95680
C         -3.91393       -0.22732        2.37672
O         -3.14261       -0.11564        1.18453
C         -5.18258       -1.00483        2.07519
H         -5.76892       -1.17970        2.99051
H         -5.80662       -0.43453        1.37136
H         -4.95203       -1.97207        1.61182
C         -4.26526        1.18800        2.82864
H         -3.35761        1.76320        3.06345
H         -4.78468        1.70355        2.00779
H         -4.92142        1.19240        3.71146
H          1.06699        5.95895        1.51182
H          4.07590        2.17398       -3.53633
C          1.21318       -0.29585        2.13299
S          2.78946        0.45326        2.03968
C          1.16809       -1.48202        1.39145
C          3.38625       -0.75891        0.94583
C          2.42832       -1.70749        0.73187
H          0.43206       -2.26896        1.55222
C          4.76647       -0.71304        0.37056
Cl         2.70596       -3.07228       -0.29140
H          4.68783       -1.12962       -0.65112
C          5.72872       -1.61663        1.15658
H          5.31966       -2.63800        1.19297
H          5.77298       -1.25530        2.19947
C          7.12301       -1.61437        0.54150
H          7.80182       -2.24191        1.14130
H          7.07501       -2.08015       -0.45960
C          7.67906       -0.20062        0.41058
H          8.66784       -0.21867       -0.07581
H          7.83638        0.22140        1.41981
C          6.72212        0.70154       -0.36130
H          6.64844        0.34680       -1.40570
H          7.11616        1.72969       -0.41050
C          5.33071        0.70365        0.25888
H          5.38216        1.14994        1.26950
H          4.64386        1.33331       -0.32628
