110
Int1_comp23_2_Sub23.log	Energy: -1496728.9558526
N          0.43416       -2.33989       -0.48372
C          1.53339       -2.73076        0.18502
C          1.98029       -4.05515        0.12326
C          1.27950       -4.97549       -0.64579
C          0.14746       -4.55144       -1.33807
C         -0.23873       -3.22139       -1.22503
H         -1.11258       -2.82790       -1.74856
H         -0.43352       -5.23661       -1.95730
H          2.86580       -4.36754        0.67636
C          2.21746       -1.68401        0.97402
N          1.62419       -0.47561        0.98944
C          2.17865        0.52594        1.67856
C          3.37386        0.37454        2.37329
C          4.00429       -0.86536        2.36001
C          3.41207       -1.91101        1.66284
H          3.88616       -2.89196        1.64386
H          3.79893        1.22228        2.91285
H          1.61157        1.46183        1.67113
Ir        -0.24552       -0.24866       -0.19440
H          0.05249        1.85830       -2.27261
B         -1.55926       -0.79917        1.21022
O         -1.92176       -2.13501        1.38304
C         -2.62915       -2.25910        2.61450
C         -3.69850       -3.32592        2.46487
H         -4.34494       -3.11785        1.60261
H         -4.32318       -3.39352        3.36899
H         -3.22281       -4.30479        2.30310
C         -1.61219       -2.67574        3.67416
H         -2.08028       -2.86620        4.65134
H         -1.11574       -3.59837        3.33871
H         -0.84023       -1.90166        3.79663
C         -3.17386       -0.80560        2.83496
O         -2.19197       -0.01570        2.16443
C         -4.51092       -0.56402        2.14238
H         -4.44665       -0.84191        1.08229
H         -5.33130       -1.11319        2.62790
H         -4.73982        0.51077        2.18264
C         -3.24819       -0.36636        4.28665
H         -2.25942       -0.38306        4.76274
H         -3.62828        0.66468        4.33807
H         -3.93162       -1.01074        4.86125
B         -0.77722        1.64277        0.31050
O         -1.60384        2.51799       -0.39558
C         -1.91527        3.63179        0.43770
C         -2.10353        4.86364       -0.42808
H         -1.23673        5.02773       -1.08160
H         -2.98955        4.73277       -1.06717
H         -2.25885        5.76237        0.18887
C         -3.20804        3.28663        1.17240
H         -3.56404        4.11505        1.80293
H         -3.98184        3.05482        0.42618
H         -3.06329        2.38727        1.78830
C         -0.67595        3.67994        1.39295
O         -0.28330        2.30905        1.43686
C         -0.98364        4.14719        2.80476
H         -1.70481        3.47924        3.29242
H         -0.06136        4.14334        3.40507
H         -1.38663        5.17202        2.80554
C          0.49239        4.47214        0.81283
H          0.76169        4.10146       -0.18700
H          0.27816        5.55026        0.76394
H          1.36894        4.32988        1.46455
B         -1.92068       -0.17167       -1.31896
O         -1.89009       -0.23200       -2.72184
C         -3.17252        0.15489       -3.22018
C         -3.12782        1.66323       -3.44805
H         -2.91051        2.18517       -2.50437
H         -2.31155        1.88609       -4.15134
H         -4.06610        2.04705       -3.87559
C         -3.44158       -0.57275       -4.52423
H         -2.72718       -0.23466       -5.28945
H         -4.45828       -0.36318       -4.89125
H         -3.32557       -1.65870       -4.41086
C         -4.11014       -0.24504       -2.03340
O         -3.25073       -0.09214       -0.90989
C         -5.32357        0.64980       -1.85164
H         -5.96900        0.63285       -2.74361
H         -5.91612        0.29997       -0.99326
H         -5.02099        1.68528       -1.65090
C         -4.54076       -1.70884       -2.08593
H         -3.67197       -2.36802       -2.22889
H         -5.00674       -1.97575       -1.12612
H         -5.26631       -1.90163       -2.89011
H          1.61401       -6.01362       -0.70261
H          4.94649       -1.02003        2.89020
C          0.99107        1.35428       -2.03402
C          1.19824        0.02139       -2.44917
N          1.94627        2.10024       -1.44455
C          2.44445       -0.59073       -2.23784
H          0.40075       -0.47387       -3.00468
C          3.07999        1.48147       -1.22258
C          3.42394        0.14124       -1.57340
H          2.62160       -1.61784       -2.56695
N          4.17201        2.01791       -0.58178
C          4.75373       -0.11431       -1.09586
C          5.16341        1.06168       -0.48003
H          4.18274        2.94291       -0.17867
C          5.43440       -1.43969       -1.25227
N          6.30880        1.36029        0.21823
C          6.74400       -1.64241       -0.50456
H          5.60242       -1.64197       -2.32659
H          4.72279       -2.22236       -0.92892
H          7.54461       -0.98938       -0.89090
H          7.10495       -2.67482       -0.62259
H          6.62946       -1.45301        0.57452
H          7.05762        0.69981        0.07584
C          6.71063        2.72104        0.45340
H          7.67159        2.72388        0.98452
H          5.99142        3.24090        1.10882
H          6.82726        3.32124       -0.47029
