99
Int1_comp27_4_Sub22.log	Energy: -1896788.0873002
N          1.03391       -2.20023       -0.31944
C          2.15918       -2.42069        0.38207
C          2.80258       -3.66227        0.33796
C          2.26873       -4.67789       -0.44447
C          1.09884       -4.43335       -1.16058
C          0.51398       -3.17688       -1.06386
H         -0.39720       -2.92202       -1.60843
H          0.64101       -5.20101       -1.78625
H          3.71157       -3.83650        0.91289
C          2.64833       -1.28729        1.19610
N          1.88767       -0.17663        1.17474
C          2.23014        0.87910        1.91945
C          3.37816        0.88925        2.70340
C          4.18857       -0.24154        2.71882
C          3.81441       -1.34683        1.96471
H          4.42915       -2.24659        1.97266
H          3.62823        1.77885        3.28298
H          1.53739        1.72460        1.87708
Ir         0.11371       -0.19282       -0.15671
H          0.62468       -0.14568       -3.00710
B         -1.20760       -0.88435        1.18223
O         -1.38243       -2.25276        1.37486
C         -2.11026       -2.44879        2.58629
C         -3.00156       -3.66774        2.43540
H         -3.63925       -3.58361        1.54608
H         -3.64241       -3.80398        3.32009
H         -2.37908       -4.56779        2.32187
C         -1.08254       -2.67873        3.69128
H         -1.55337       -2.90844        4.65849
H         -0.44331       -3.52669        3.40415
H         -0.43828       -1.79536        3.81286
C         -2.87197       -1.08753        2.74045
O         -1.99114       -0.17751        2.07853
C         -4.20212       -1.06905        1.99553
H         -4.05599       -1.36068        0.94749
H         -4.94653       -1.72624        2.46868
H         -4.59584       -0.04247        1.99664
C         -3.06576       -0.62380        4.17310
H         -2.10432       -0.48012        4.68255
H         -3.59551        0.34026        4.17757
H         -3.66817       -1.34619        4.74537
B         -0.68975        1.63408        0.24315
O         -1.54266        2.38896       -0.56530
C         -2.17932        3.37662        0.24653
C         -2.48547        4.59742       -0.60127
H         -1.58829        4.96829       -1.11359
H         -3.22848        4.33430       -1.36874
H         -2.90387        5.41017        0.01219
C         -3.47051        2.75443        0.77014
H         -4.05526        3.46243        1.37585
H         -4.08166        2.43825       -0.08683
H         -3.24491        1.85719        1.36326
C         -1.11943        3.60480        1.37910
O         -0.44084        2.34843        1.41471
C         -1.70838        3.87125        2.75378
H         -2.30489        3.01608        3.09538
H         -0.89564        4.02666        3.47901
H         -2.33941        4.77347        2.74978
C         -0.09989        4.68110        1.02689
H          0.32617        4.51225        0.02874
H         -0.54138        5.68819        1.05956
H          0.72543        4.64326        1.75342
B         -1.50634       -0.34183       -1.36577
O         -1.43030       -0.44800       -2.76458
C         -2.73875       -0.26375       -3.31137
C         -2.89761        1.22530       -3.60276
H         -2.77708        1.80997       -2.67900
H         -2.10358        1.53291       -4.29933
H         -3.86919        1.45579       -4.06432
C         -2.86402       -1.07390       -4.58807
H         -2.18549       -0.66730       -5.35259
H         -3.88976       -1.02772       -4.98532
H         -2.59721       -2.12637       -4.42511
C         -3.64378       -0.74546       -2.13112
O         -2.84868       -0.42044       -0.99555
C         -4.98077       -0.03430       -2.02342
H         -5.59125       -0.19839       -2.92487
H         -5.53769       -0.42144       -1.15739
H         -4.84450        1.04479       -1.88010
C         -3.85424       -2.25773       -2.12618
H         -2.89500       -2.78814       -2.21651
H         -4.30713       -2.55025       -1.16773
H         -4.51788       -2.58845       -2.93869
H          2.75962       -5.65243       -0.49094
H          5.10398       -0.26684        3.31367
C          1.52490        0.12165       -2.45024
C          2.63455       -0.73537       -2.41921
C          1.60000        1.37618       -1.83312
C          3.81493       -0.39173       -1.77156
H          2.57014       -1.71056       -2.90789
C          2.79795        1.75288       -1.20250
H          0.78814        2.09781       -1.92903
C          3.88098        0.87827       -1.15800
C          4.98226       -1.32767       -1.72173
Cl         2.90675        3.31054       -0.46879
Cl         5.33805        1.34141       -0.34823
H          5.26631       -1.54820       -0.68049
H          5.86993       -0.88560       -2.20071
H          4.74334       -2.27308       -2.22678
