99
Int1_comp173_5_Sub22.log	Energy: -1670709.9069764
N          2.04205       -0.90608       -1.48993
C          3.27665       -0.78796       -0.97304
C          4.34229       -1.53590       -1.48278
C          4.11755       -2.40968       -2.53928
C          2.83415       -2.51182       -3.06953
C          1.82486       -1.73719       -2.51062
H          0.79662       -1.77326       -2.87997
H          2.61044       -3.18275       -3.90030
H          5.34033       -1.44296       -1.05566
C          3.41931        0.15524        0.15853
N          2.28837        0.75136        0.57899
C          2.32840        1.60442        1.60641
C          3.51452        1.91548        2.26425
C          4.69519        1.31586        1.83527
C          4.64601        0.42214        0.77243
H          5.55829       -0.05983        0.42249
H          3.50155        2.61468        3.10203
H          1.35911        2.00932        1.91306
Ir         0.37800        0.06425       -0.37366
H         -1.12630        1.48815       -2.58821
B          0.31593       -1.51720        0.84674
O          1.03157       -2.67720        0.55782
C          1.09565       -3.47270        1.74072
C          1.07796       -4.93929        1.35261
H          0.21594       -5.16796        0.71303
H          1.04127       -5.58582        2.24291
H          1.99122       -5.18279        0.78941
C          2.40705       -3.12404        2.44036
H          2.58264       -3.74348        3.33222
H          3.23464       -3.28720        1.73396
H          2.41930       -2.06487        2.73810
C         -0.16231       -2.98312        2.53474
O         -0.27701       -1.62825        2.09335
C         -1.43755       -3.71036        2.12269
H         -1.56370       -3.67126        1.03256
H         -1.44272       -4.75597        2.46433
H         -2.29949       -3.19355        2.56826
C         -0.00944       -2.99554        4.04478
H          0.81178       -2.34427        4.37093
H         -0.93568       -2.62824        4.51095
H          0.17632       -4.01557        4.41520
B         -1.00593        0.85981        0.88521
O         -2.39133        0.85375        0.78144
C         -2.96518        1.19263        2.04160
C         -4.25013        1.96824        1.81019
H         -4.08431        2.83231        1.15497
H         -4.98854        1.31385        1.32344
H         -4.67988        2.31603        2.76228
C         -3.26393       -0.12079        2.75881
H         -3.76169        0.03810        3.72702
H         -3.92545       -0.72230        2.11842
H         -2.33733       -0.69242        2.90419
C         -1.81512        2.01517        2.72626
O         -0.65016        1.52224        2.06523
C         -1.66359        1.76838        4.21803
H         -1.42655        0.71619        4.41975
H         -0.84031        2.38315        4.61249
H         -2.58123        2.03986        4.76226
C         -1.90419        3.51237        2.45216
H         -2.04169        3.70807        1.38067
H         -2.73307        3.98182        3.00245
H         -0.96491        3.98782        2.77305
B         -1.23790       -0.82875       -1.19367
O         -1.72665       -0.56354       -2.48414
C         -3.02497       -1.15440       -2.60335
C         -4.03773       -0.10373       -2.15683
H         -3.84653        0.19477       -1.11554
H         -3.92090        0.79196       -2.78470
H         -5.07351       -0.46109       -2.25575
C         -3.26363       -1.54676       -4.04905
H         -3.30993       -0.64273       -4.67414
H         -4.21788       -2.08479       -4.15869
H         -2.45535       -2.18267       -4.43368
C         -2.92103       -2.35079       -1.60084
O         -2.00051       -1.85220       -0.63643
C         -4.22069       -2.70829       -0.90162
H         -4.99501       -3.00480       -1.62608
H         -4.05230       -3.55182       -0.21577
H         -4.59188       -1.86236       -0.30945
C         -2.29957       -3.59673       -2.22651
H         -1.36281       -3.34855       -2.74670
H         -2.05744       -4.31155       -1.42646
H         -2.97898       -4.08871       -2.93823
H          4.93882       -3.00486       -2.94431
H          5.64633        1.53563        2.32512
C         -0.41891        2.14839       -2.08463
C          0.95805        1.93710       -2.21527
C         -0.85610        3.26960       -1.36708
C          1.84451        2.81740       -1.59351
H          1.34749        1.15665       -2.86848
C          0.04296        4.12430       -0.74534
Cl        -2.55466        3.60733       -1.29476
C          1.42644        3.90423       -0.83605
F          3.15833        2.59086       -1.71915
H         -0.32879        4.98185       -0.18165
C          2.42863        4.80602       -0.18265
H          3.01231        5.36360       -0.93250
H          3.14753        4.22915        0.41849
H          1.93266        5.53380        0.47343
