101
Int1_comp42_4_Sub8.log	Energy: -1378124.8652998
N          2.13381        1.22466        0.81988
C          3.32906        0.99575        0.24785
C          4.37372        1.91952        0.35292
C          4.17258        3.09389        1.06693
C          2.92525        3.32300        1.64359
C          1.93234        2.36505        1.48520
H          0.92414        2.51058        1.87814
H          2.71306        4.23766        2.19941
H          5.32829        1.73216       -0.13923
C          3.44199       -0.26049       -0.52143
N          2.28086       -0.89224       -0.78487
C          2.28728       -2.01304       -1.51175
C          3.46640       -2.57384       -1.99824
C          4.67559       -1.94828       -1.71209
C          4.66360       -0.77266       -0.96716
H          5.59690       -0.26200       -0.72883
H          3.42423       -3.48882       -2.59159
H          1.30006       -2.43346       -1.72166
Ir         0.46808       -0.10669        0.23675
H          0.04977       -1.37861        2.72465
B         -0.08162        1.30284       -1.07067
O          0.61394        2.50826       -1.18528
C          0.17957        3.17949       -2.36507
C          0.20753        4.67708       -2.12095
H         -0.37062        4.94201       -1.22652
H         -0.19916        5.22838       -2.98284
H          1.24586        5.00547       -1.96347
C          1.15483        2.80485       -3.47784
H          0.94200        3.33685       -4.41691
H          2.17319        3.06439       -3.15263
H          1.12601        1.72209       -3.66954
C         -1.24687        2.57296       -2.58268
O         -1.10025        1.27138       -2.01458
C         -2.32426        3.29867       -1.78369
H         -2.02843        3.37897       -0.72880
H         -2.53723        4.29855       -2.19034
H         -3.24827        2.70318       -1.82164
C         -1.66613        2.43541       -4.03545
H         -0.98841        1.77115       -4.58732
H         -2.67758        2.00615       -4.09002
H         -1.68708        3.41646       -4.53490
B         -0.97417       -1.18074       -0.71413
O         -2.31413       -1.36394       -0.38610
C         -3.01661       -1.92365       -1.49374
C         -4.04899       -2.91209       -0.97789
H         -3.58801       -3.70173       -0.37198
H         -4.77829       -2.38141       -0.34794
H         -4.59523       -3.38270       -1.80984
C         -3.71885       -0.77025       -2.20495
H         -4.30953       -1.11202       -3.06773
H         -4.40132       -0.28365       -1.49191
H         -2.98308       -0.02189       -2.52629
C         -1.86247       -2.56899       -2.34797
O         -0.71334       -1.84338       -1.91778
C         -2.01421       -2.38340       -3.84919
H         -2.03651       -1.31902       -4.11521
H         -1.15662       -2.84278       -4.36325
H         -2.93192       -2.86482       -4.22095
C         -1.61753       -4.04009       -2.02599
H         -1.43876       -4.18183       -0.95110
H         -2.45336       -4.67915       -2.34771
H         -0.71414       -4.37049       -2.56170
B         -1.05431        0.63558        1.33567
O         -1.64581       -0.01380        2.43105
C         -2.81157        0.70583        2.82986
C         -4.00186        0.10900        2.08507
H         -3.85652        0.18596        0.99912
H         -4.07084       -0.96157        2.32649
H         -4.94858        0.59101        2.37053
C         -3.00063        0.55292        4.32839
H         -3.22136       -0.49852        4.56479
H         -3.84265        1.16548        4.68620
H         -2.09627        0.83859        4.88137
C         -2.47160        2.15593        2.35177
O         -1.62229        1.91170        1.23297
C         -3.66725        2.97659        1.90246
H         -4.39414        3.09876        2.72039
H         -3.33547        3.97772        1.58907
H         -4.17068        2.50688        1.04817
C         -1.65577        2.93818        3.37790
H         -0.80185        2.34233        3.73359
H         -1.26473        3.84706        2.89656
H         -2.25744        3.23961        4.24807
H          4.97535        3.82883        1.15743
H          5.62070       -2.36404       -2.06909
C          0.79270       -1.95609        2.17652
C          2.17840       -1.78236        2.24420
C          0.57198       -3.18281        1.46615
N          2.75493       -2.81337        1.57410
C          2.97863       -0.81144        3.03534
C          1.79944       -3.68040        1.08332
O         -0.59997       -3.78469        1.20662
H          3.74622       -2.89766        1.40028
H          3.35437       -1.27220        3.96472
H          2.36029        0.05128        3.31021
H          3.84941       -0.43550        2.47466
H          2.05302       -4.56239        0.50368
C         -1.68673       -3.38110        2.01201
H         -1.46953       -3.56985        3.07854
H         -1.92491       -2.31820        1.86342
H         -2.54567       -3.99291        1.70829
