111
Int1_comp34_0_Sub28.log	Energy: -1512330.4652339
N          0.90933       -2.13500        0.02802
C          1.89472       -2.25725        0.93304
C          2.61318       -3.45037        1.05978
C          2.28002       -4.53186        0.25319
C          1.24162       -4.39444       -0.66399
C          0.58887       -3.17070       -0.74758
H         -0.21044       -2.98961       -1.47069
H          0.94620       -5.21471       -1.31973
H          3.42960       -3.53018        1.77756
C          2.14154       -1.07254        1.78176
N          1.52285        0.06241        1.40690
C          1.65502        1.16486        2.15205
C          2.39955        1.18075        3.32686
C          3.03987        0.01214        3.73213
C          2.91443       -1.12611        2.94612
H          3.39099       -2.05784        3.25016
H          2.46665        2.09948        3.91176
H          1.09976        2.03787        1.79565
Ir        -0.08281       -0.15482       -0.13336
H          0.62026       -0.58754       -2.90619
B         -1.39498       -0.58666        1.31205
O         -1.47573       -1.85992        1.87204
C         -2.21611       -1.76833        3.08879
C         -3.00609       -3.04826        3.28799
H         -3.62514       -3.27106        2.40958
H         -3.65724       -2.97954        4.17311
H         -2.31401       -3.89053        3.43639
C         -1.20103       -1.58974        4.21540
H         -1.67534       -1.58181        5.20793
H         -0.48527       -2.42423        4.17736
H         -0.63630       -0.65419        4.08629
C         -3.08418       -0.48690        2.85036
O         -2.24373        0.27843        1.98612
C         -4.37442       -0.78097        2.09261
H         -4.15959       -1.34802        1.17718
H         -5.10006       -1.32953        2.71127
H         -4.82692        0.17253        1.78428
C         -3.37769        0.32716        4.09753
H         -2.45366        0.68744        4.56792
H         -3.98273        1.20571        3.82859
H         -3.94472       -0.26453        4.83284
B         -0.92041        1.69113       -0.12248
O         -1.81170        2.23454       -1.05190
C         -2.37405        3.42561       -0.50389
C         -2.72565        4.37951       -1.63031
H         -1.86677        4.55985       -2.29001
H         -3.53287        3.94712       -2.23995
H         -3.07792        5.34514       -1.23572
C         -3.62884        3.01380        0.26152
H         -4.16631        3.87978        0.67592
H         -4.29834        2.48139       -0.42941
H         -3.36823        2.31507        1.06958
C         -1.22742        3.91302        0.44155
O         -0.61441        2.68164        0.81965
C         -1.69661        4.63420        1.69218
H         -2.31667        3.97571        2.31352
H         -0.82738        4.94566        2.29104
H         -2.27522        5.53580        1.43807
C         -0.17614        4.74476       -0.28760
H          0.14542        4.24487       -1.21293
H         -0.54522        5.74887       -0.54360
H          0.70395        4.85629        0.36352
B         -1.64684       -0.59139       -1.33073
O         -1.51023       -0.97524       -2.67647
C         -2.80262       -0.94687       -3.28862
C         -2.99044        0.45045       -3.87218
H         -2.92331        1.20786       -3.07732
H         -2.17833        0.64300       -4.58895
H         -3.94944        0.55304       -4.40143
C         -2.85911       -1.99452       -4.38449
H         -2.15908       -1.72558       -5.18937
H         -3.86892       -2.05682       -4.81876
H         -2.57680       -2.98690       -4.00894
C         -3.73876       -1.21663       -2.06490
O         -2.99648       -0.65030       -0.99073
C         -5.09490       -0.53751       -2.13847
H         -5.66774       -0.88353       -3.01284
H         -5.67466       -0.77286       -1.23367
H         -4.98621        0.55307       -2.19343
C         -3.91142       -2.70447       -1.76961
H         -2.93583       -3.20980       -1.71836
H         -4.39649       -2.81718       -0.78907
H         -4.53299       -3.20957       -2.52373
H          2.82813       -5.47276        0.34055
H          3.62778       -0.01560        4.65204
C          1.42439       -0.10934       -2.34458
C          2.62479       -0.74816       -2.05827
C          1.36021        1.24711       -1.96213
O          2.95358       -2.04967       -2.29942
C          3.67660       -0.11969       -1.41203
C          2.44100        1.88181       -1.32886
H          0.48716        1.83167       -2.25514
C          4.33264       -2.14821       -2.02078
O          4.68671       -1.03353       -1.23027
C          3.64032        1.22198       -1.02380
H          2.33173        2.93414       -1.07025
H          4.90635       -2.13012       -2.97036
H          4.53215       -3.07678       -1.46508
C          4.84417        1.89800       -0.37600
C          5.27573        1.11480        0.87129
H          6.16676        1.58190        1.32076
H          4.47658        1.11378        1.62480
H          5.52015        0.07197        0.62905
C          5.99469        1.91415       -1.39431
H          5.71030        2.47567       -2.29734
H          6.88621        2.39285       -0.95802
H          6.26838        0.89269       -1.69560
C          4.52637        3.33373        0.03979
H          5.40718        3.78151        0.52481
H          4.26610        3.96482       -0.82329
H          3.69136        3.37081        0.75666
