108
Int1_comp34_0_Sub21.log	Energy: -1487685.8223292
N          1.44961       -1.16521        0.97466
C          2.32693       -0.57425        1.80322
C          3.30671       -1.32042        2.46598
C          3.38359       -2.68964        2.24459
C          2.47794       -3.28239        1.36914
C          1.52306       -2.47834        0.75911
H          0.79005       -2.88432        0.05930
H          2.50318       -4.35266        1.15923
H          3.99958       -0.83749        3.15470
C          2.17950        0.88817        1.96678
N          1.12603        1.44772        1.34373
C          0.89633        2.75685        1.47550
C          1.72852        3.58295        2.22400
C          2.84171        3.02546        2.84671
C          3.06808        1.66100        2.71983
H          3.93625        1.20428        3.19340
H          1.50238        4.64730        2.30685
H          0.00288        3.12507        0.96148
Ir        -0.10629        0.11848        0.04829
H          1.32951       -0.85456       -2.25854
B         -1.46829       -0.43899        1.40042
O         -1.29124       -1.57194        2.19156
C         -2.24838       -1.54277        3.24806
C         -2.67718       -2.96374        3.56542
H         -3.02894       -3.48049        2.66328
H         -3.47949       -2.97871        4.31918
H         -1.82068       -3.52654        3.96564
C         -1.55999       -0.91627        4.45799
H         -2.20281       -0.91521        5.35069
H         -0.65176       -1.49496        4.68228
H         -1.25641        0.11829        4.23975
C         -3.37610       -0.63099        2.65230
O         -2.63901        0.21088        1.76374
C         -4.38556       -1.41056        1.81637
H         -3.86832       -2.00205        1.04958
H         -5.01563       -2.06489        2.43684
H         -5.03744       -0.69682        1.29237
C         -4.09533        0.23870        3.66798
H         -3.40248        0.92279        4.17460
H         -4.85510        0.84776        3.15623
H         -4.60555       -0.37664        4.42521
B         -1.51658        1.41332       -0.61840
O         -2.34666        1.28015       -1.73526
C         -3.38397        2.25562       -1.65214
C         -3.83066        2.63429       -3.05197
H         -2.98231        2.94065       -3.67799
H         -4.30738        1.76723       -3.53285
H         -4.56522        3.45401       -3.02497
C         -4.53406        1.61933       -0.87651
H         -5.41158        2.28038       -0.81730
H         -4.82566        0.68981       -1.38628
H         -4.20379        1.34903        0.13674
C         -2.68146        3.39786       -0.84846
O         -1.76153        2.66572       -0.04002
C         -3.59986        4.20147        0.05424
H         -4.05915        3.55964        0.81653
H         -3.02262        4.98175        0.57288
H         -4.39539        4.69473       -0.52557
C         -1.86983        4.32988       -1.74353
H         -1.22730        3.75416       -2.42561
H         -2.51209        4.99098       -2.34394
H         -1.22386        4.95838       -1.11218
B         -1.13959       -1.19896       -1.08306
O         -0.59281       -1.83761       -2.20952
C         -1.65154       -2.46551       -2.93660
C         -2.15264       -1.45206       -3.96150
H         -2.52242       -0.54861       -3.45449
H         -1.30890       -1.15721       -4.60313
H         -2.94485       -1.86693       -4.60233
C         -1.11523       -3.70434       -3.62907
H         -0.38424       -3.41149       -4.39728
H         -1.92532       -4.26107       -4.12503
H         -0.61038       -4.37449       -2.92089
C         -2.69528       -2.73971       -1.80439
O         -2.43618       -1.67546       -0.89644
C         -4.14633       -2.66939       -2.24684
H         -4.36362       -3.42042       -3.02216
H         -4.80501       -2.86430       -1.38754
H         -4.39028       -1.67364       -2.63818
C         -2.43546       -4.04889       -1.06314
H         -1.38533       -4.11701       -0.74352
H         -3.05985       -4.07343       -0.15818
H         -2.67669       -4.93011       -1.67586
H          4.14260       -3.28774        2.75378
H          3.52811        3.64470        3.42840
C          1.76274        0.08059       -1.89964
C          3.01049        0.14359       -1.29258
C          1.11921        1.31888       -2.12749
O          3.82713       -0.88520       -0.93902
C          3.58853        1.34114       -0.89887
C          1.72139        2.52957       -1.75432
H          0.17476        1.32333       -2.67344
C          5.04564       -0.29596       -0.49913
O          4.77630        1.08525       -0.27986
C          2.96981        2.56051       -1.12499
H          1.19897        3.46706       -1.95250
C          6.14794       -0.48894       -1.53017
H          5.32079       -0.75465        0.46730
H          3.43933        3.49532       -0.81614
H          5.78311       -0.00547       -2.45457
C          7.42250        0.20808       -1.07554
H          8.21013        0.11508       -1.83784
H          7.24622        1.27652       -0.88825
H          7.80733       -0.24271       -0.14513
C          6.36015       -1.97272       -1.79695
H          5.42839       -2.45470       -2.12412
H          7.12148       -2.12312       -2.57659
H          6.71007       -2.48952       -0.88733
