101
Int1_comp43_0_Sub15.log	Energy: -1580752.8018074
N          0.92903       -2.33000       -0.46613
C          2.07534       -2.66674        0.15562
C          2.49179       -4.00218        0.21346
C          1.71364       -4.98880       -0.37314
C          0.51946       -4.62293       -0.99236
C          0.16290       -3.28206       -1.00918
H         -0.77694       -2.93261       -1.44412
H         -0.13485       -5.36353       -1.45501
H          3.41464       -4.26927        0.72700
C          2.81802       -1.57001        0.80670
N          2.23012       -0.36031        0.78359
C          2.82345        0.67547        1.38115
C          4.03737        0.55661        2.04709
C          4.66130       -0.68912        2.07819
C          4.04633       -1.76265        1.45082
H          4.52132       -2.74296        1.45627
H          4.47858        1.42932        2.53121
H          2.28098        1.62002        1.33210
Ir         0.33829       -0.22989       -0.35399
H          0.91839       -0.80591       -3.04499
B         -0.84147       -0.78227        1.22918
O         -0.44244       -1.79641        2.09343
C         -1.31869       -1.79570        3.22244
C         -1.46669       -3.21470        3.73711
H         -1.77588       -3.89814        2.93567
H         -2.20518       -3.26601        4.55211
H         -0.50094       -3.56734        4.12849
C         -0.67753       -0.90163        4.27984
H         -1.25599       -0.88136        5.21536
H          0.32843       -1.28774        4.50064
H         -0.56590        0.12387        3.89777
C         -2.61827       -1.17237        2.61763
O         -2.08670       -0.30352        1.61610
C         -3.49133       -2.20090        1.90605
H         -2.89831       -2.78634        1.18943
H         -3.98646       -2.88252        2.61347
H         -4.26340       -1.66904        1.33232
C         -3.45063       -0.36196        3.59420
H         -2.87802        0.47692        4.01018
H         -4.33058        0.05019        3.07858
H         -3.80619       -0.99087        4.42501
B         -0.29513        1.56598        0.42203
O         -1.05766        2.58448       -0.13941
C         -1.49081        3.47165        0.89547
C         -1.56103        4.88719        0.35073
H         -0.60004        5.21639       -0.06258
H         -2.31043        4.93263       -0.45319
H         -1.86360        5.59406        1.13868
C         -2.88155        3.01384        1.32496
H         -3.30289        3.65655        2.11196
H         -3.54839        3.05659        0.45233
H         -2.85114        1.97203        1.67331
C         -0.40765        3.24998        2.00773
O          0.03859        1.92411        1.73403
C         -0.94171        3.30394        3.42890
H         -1.72016        2.54761        3.58862
H         -0.12380        3.10424        4.13701
H         -1.35969        4.29600        3.65966
C          0.80070        4.17198        1.87255
H          1.24285        4.08967        0.86943
H          0.54887        5.22266        2.07923
H          1.56422        3.85670        2.60022
B         -1.38094       -0.30295       -1.42116
O         -1.74216        0.57016       -2.44433
C         -3.09773        0.31616       -2.80580
C         -3.97040        1.21321       -1.93361
H         -3.85020        0.95243       -0.87239
H         -3.63254        2.25155       -2.05879
H         -5.03468        1.14847       -2.20469
C         -3.29505        0.64852       -4.27296
H         -3.16645        1.73034       -4.42432
H         -4.30719        0.37495       -4.60906
H         -2.56056        0.13179       -4.90448
C         -3.24793       -1.19719       -2.44184
O         -2.33326       -1.32961       -1.35343
C         -4.63390       -1.61047       -1.98158
H         -5.38000       -1.44547       -2.77424
H         -4.63621       -2.68073       -1.72653
H         -4.93843       -1.05182       -1.08781
C         -2.76940       -2.11929       -3.55976
H         -1.76900       -1.82383       -3.90939
H         -2.70900       -3.14823       -3.17390
H         -3.45456       -2.11848       -4.42021
H          2.02869       -6.03384       -0.33577
H          5.61881       -0.82390        2.58629
C          1.52004       -0.17690       -2.39008
S          3.23319       -0.49582       -2.29893
C          1.22170        1.15216       -2.05343
C          3.56423        1.12822       -1.75275
C          2.41899        1.88364       -1.67683
H          0.30227        1.63611       -2.38289
C          4.95195        1.53925       -1.39827
N          2.37131        3.20366       -1.25235
H          5.18481        1.37351       -0.33159
H          5.10863        2.61041       -1.60973
H          5.69811        0.98660       -1.98851
H          3.29373        3.61055       -1.15082
C          1.42127        4.09556       -1.88163
H          1.52912        5.09971       -1.44660
H          0.39767        3.75343       -1.67428
H          1.55261        4.17727       -2.97841
