101
Int1_comp171_5_Sub9.log	Energy: -1622563.8194362
N          1.22230        2.21698       -0.06907
C          0.85081        3.15222        0.82288
C          1.64504        4.27843        1.05464
C          2.82788        4.43430        0.34332
C          3.19201        3.45998       -0.57965
C          2.35999        2.36074       -0.75121
H          2.58079        1.56969       -1.47125
H          4.10409        3.54616       -1.17142
H          1.34686        5.02664        1.78816
C         -0.41991        2.90421        1.53735
N         -1.00891        1.71426        1.31203
C         -2.15061        1.41228        1.93730
C         -2.77138        2.29139        2.81889
C         -2.18145        3.52912        3.05458
C         -0.99142        3.83845        2.40711
H         -0.51525        4.80451        2.57133
H         -3.70371        1.99896        3.30451
H         -2.55621        0.42138        1.71175
Ir         0.01922        0.33942       -0.12356
H         -0.04769        1.12767       -2.76287
B          1.38882       -0.31901        1.21525
O          2.74284       -0.04162        1.09715
C          3.35894       -0.30006        2.36333
C          4.77703       -0.78836        2.14286
H          4.80151       -1.64938        1.46434
H          5.24565       -1.07464        3.09686
H          5.38037        0.01439        1.69358
C          3.36377        1.01752        3.13339
H          3.89578        0.93495        4.09245
H          3.86502        1.78146        2.52079
H          2.33652        1.35943        3.32931
C          2.38418       -1.35500        2.97721
O          1.12812       -0.93951        2.42240
C          2.65590       -2.76583        2.46784
H          2.69067       -2.78110        1.36868
H          3.59180       -3.17599        2.87456
H          1.82742       -3.41841        2.77455
C          2.28757       -1.33549        4.48994
H          1.93795       -0.36249        4.85889
H          1.57157       -2.10061        4.82402
H          3.26302       -1.55923        4.94844
B         -0.90770       -1.41886        0.39460
O         -0.40396       -2.69611        0.43987
C         -1.42985       -3.60275        0.84384
C         -2.01671       -4.22128       -0.41980
H         -2.48279       -3.45960       -1.05856
H         -1.19843       -4.67504       -0.99685
H         -2.75843       -5.00029       -0.18887
C         -0.81586       -4.68394        1.71480
H         -1.58824       -5.37040        2.09461
H         -0.09970       -5.26820        1.11900
H         -0.27537       -4.25431        2.56738
C         -2.43126       -2.65874        1.58690
O         -2.21327       -1.41516        0.90335
C         -2.05131       -2.42896        3.04730
H         -0.99929       -2.11740        3.12817
H         -2.67804       -1.62128        3.45526
H         -2.21555       -3.32705        3.66061
C         -3.89049       -3.05554        1.47494
H         -4.21858       -3.10608        0.43055
H         -4.06015       -4.03515        1.94757
H         -4.51913       -2.31490        1.99097
B          1.20780       -0.74077       -1.38288
O          1.67716       -0.14724       -2.56671
C          2.42058       -1.11239       -3.32388
C          1.49251       -1.66607       -4.39720
H          0.61737       -2.16140       -3.95536
H          1.12667       -0.83264       -5.01539
H          2.01264       -2.37724       -5.05534
C          3.60381       -0.41340       -3.97000
H          3.24071        0.33000       -4.69503
H          4.23899       -1.13211       -4.50981
H          4.22273        0.10823       -3.22797
C          2.79706       -2.16889       -2.22502
O          1.77441       -1.98864       -1.24781
C          2.76546       -3.61125       -2.69883
H          3.49535       -3.78161       -3.50513
H          3.01879       -4.27522       -1.85962
H          1.76647       -3.88956       -3.05690
C          4.12871       -1.87208       -1.54258
H          4.14678       -0.85058       -1.13738
H          4.24702       -2.56289       -0.69538
H          4.98189       -2.01221       -2.22217
H          3.45582        5.31235        0.50766
H         -2.64048        4.24997        3.73484
C         -0.89196        1.40766       -2.12895
C         -1.16165        2.77580       -1.86241
C         -1.89237        0.43695       -1.82874
C         -2.33704        3.16466       -1.23351
C         -0.21158        3.77192       -2.25287
C         -1.76198       -0.84653       -2.46274
C         -3.11964        0.86906       -1.24536
C         -3.30387        2.20244       -0.92385
H         -2.51593        4.21779       -1.01367
N          0.54969        4.59077       -2.56109
N         -1.66259       -1.83745       -3.05536
C         -4.31435       -0.02926       -1.01300
H         -4.24092        2.51264       -0.45850
F         -4.10203       -1.30196       -1.30492
F         -5.34243        0.38530       -1.76927
F         -4.72958        0.04722        0.25794
