101
Int1_comp163_4_Sub7.log	Energy: -1705418.8361774
N          1.69898        1.65035        0.55730
C          2.79723        1.76537       -0.20677
C          3.72077        2.79345        0.00609
C          3.49069        3.71279        1.02165
C          2.34260        3.58456        1.79923
C          1.47322        2.53559        1.52885
H          0.55700        2.38638        2.10188
H          2.11691        4.28500        2.60461
H          4.60580        2.88266       -0.62304
C          2.94692        0.75679       -1.27794
N          1.91877       -0.09757       -1.43211
C          1.96593       -1.02641       -2.39177
C          3.05806       -1.15677       -3.24367
C          4.13426       -0.28764       -3.09023
C          4.07585        0.68385       -2.09819
H          4.90613        1.37537       -1.95915
H          3.05317       -1.92834       -4.01532
H          1.07291       -1.65401       -2.47239
Ir         0.22718        0.07308        0.01818
H          0.78322       -1.33380        2.57186
B         -0.92973        1.43337       -0.84874
O         -0.74381        2.79533       -0.61899
C         -1.47743        3.52238       -1.60248
C         -1.99342        4.80794       -0.98287
H         -2.56163        4.60341       -0.06648
H         -2.63846        5.35743       -1.68573
H         -1.14481        5.45643       -0.71835
C         -0.51085        3.83410       -2.74204
H         -0.97115        4.45981       -3.52097
H          0.35567        4.37148       -2.32899
H         -0.14450        2.90589       -3.20504
C         -2.58750        2.49570       -2.01385
O         -1.92927        1.24643       -1.79107
C         -3.80477        2.54769       -1.09706
H         -3.49577        2.45538       -0.04745
H         -4.38606        3.47069       -1.23988
H         -4.45443        1.68978       -1.32163
C         -3.01769        2.56939       -3.46788
H         -2.17726        2.37440       -4.14646
H         -3.78963        1.80981       -3.66126
H         -3.44513        3.55611       -3.70443
B         -1.08097       -1.26513       -0.77770
O         -2.22985       -1.81664       -0.22439
C         -3.01200       -2.43528       -1.24047
C         -3.67006       -3.67853       -0.66675
H         -2.93022       -4.35012       -0.21258
H         -4.38458       -3.38595        0.11696
H         -4.22315       -4.23041       -1.44237
C         -4.07372       -1.42225       -1.65840
H         -4.76580       -1.82888       -2.41076
H         -4.65170       -1.13849       -0.76662
H         -3.59477       -0.51244       -2.04432
C         -1.95271       -2.71521       -2.36859
O         -0.93667       -1.75673       -2.08186
C         -2.45923       -2.47487       -3.78148
H         -2.76865       -1.43095       -3.91652
H         -1.65426       -2.68465       -4.50190
H         -3.30855       -3.13408       -4.01851
C         -1.31762       -4.09909       -2.27456
H         -0.91822       -4.28154       -1.26792
H         -2.02969       -4.89865       -2.52715
H         -0.47961       -4.15238       -2.98646
B         -1.18593        0.20546        1.45363
O         -1.00649       -0.32401        2.74300
C         -2.27372       -0.35925        3.40400
C         -2.89375       -1.72324        3.11756
H         -3.02439       -1.86311        2.03505
H         -2.20192       -2.50264        3.46932
H         -3.85760       -1.85455        3.63167
C         -2.06175       -0.17414        4.89532
H         -1.51673       -1.03971        5.30024
H         -3.02472       -0.10193        5.42417
H         -1.47248        0.72669        5.11117
C         -3.03226        0.81207        2.69500
O         -2.43335        0.82194        1.40347
C         -4.52791        0.59880        2.54229
H         -5.01633        0.48469        3.52246
H         -4.97668        1.46583        2.03505
H         -4.73537       -0.29126        1.93492
C         -2.75577        2.17007        3.33488
H         -1.67536        2.32275        3.47454
H         -3.12316        2.95911        2.66241
H         -3.25434        2.28181        4.30915
H          4.19852        4.52552        1.19939
H          5.01004       -0.35914       -3.73944
C          1.59253       -1.62046        1.89321
C          2.77266       -0.89741        1.86375
C          1.50719       -2.76150        1.08261
C          3.86081       -1.21230        1.03118
F          2.92501        0.15744        2.67866
Cl         0.11630       -3.78327        1.21330
C          2.56071       -3.11868        0.24810
C          3.72315       -2.34849        0.22131
N          4.96565       -0.39324        1.03577
H          2.47720       -4.00968       -0.37523
H          4.53728       -2.63955       -0.44325
H          5.01148        0.24364        1.81907
C          6.20131       -0.78637        0.42835
H          6.95257       -0.00327        0.59752
H          6.08618       -0.90072       -0.66306
H          6.60286       -1.74038        0.82363
