101
Int1_comp27_2_Sub15.log	Energy: -1931502.5226521
N         -1.44297       -1.73886       -0.33352
C         -2.56204       -1.52974       -1.04806
C         -3.49964       -2.54876       -1.23400
C         -3.24548       -3.80609       -0.70037
C         -2.05691       -4.01913       -0.00866
C         -1.18266       -2.95143        0.15562
H         -0.23162       -3.05376        0.68151
H         -1.80803       -4.99427        0.41230
H         -4.41266       -2.36696       -1.79955
C         -2.68234       -0.19364       -1.66883
N         -1.62072        0.62082       -1.51638
C         -1.59785        1.80598       -2.13104
C         -2.65273        2.25241       -2.91841
C         -3.77818        1.44102       -3.04855
C         -3.79268        0.20344       -2.42001
H         -4.66270       -0.44605       -2.50514
H         -2.58937        3.22217       -3.41462
H         -0.70169        2.40785       -1.96117
Ir        -0.06669       -0.03598       -0.07251
H         -1.12153       -0.41937        2.73469
B          1.18008       -0.88697       -1.38840
O          1.14777       -2.25035       -1.65455
C          2.00838       -2.52193       -2.75943
C          2.68134       -3.86428       -2.53934
H          3.16557       -3.90239       -1.55530
H          3.43423       -4.06481       -3.31731
H          1.92850       -4.66578       -2.57746
C          1.13957       -2.55992       -4.01293
H          1.71252       -2.84366       -4.90825
H          0.33862       -3.29877       -3.86282
H          0.66949       -1.58122       -4.18943
C          2.97178       -1.28933       -2.72883
O          2.12215       -0.26999       -2.19761
C          4.12101       -1.47501       -1.74162
H          3.73578       -1.79230       -0.76158
H          4.86067       -2.20562       -2.10146
H          4.62342       -0.50733       -1.60200
C          3.49466       -0.84774       -4.08245
H          2.67637       -0.55809       -4.75454
H          4.15271        0.02474       -3.95661
H          4.07903       -1.64922       -4.56021
B          1.24928        1.51188       -0.04912
O          2.62488        1.48977        0.15408
C          3.18802        2.75320       -0.18645
C          4.40850        3.01147        0.67863
H          4.17673        2.91675        1.74674
H          5.19001        2.27608        0.43756
H          4.81793        4.01639        0.49222
C          3.59039        2.70321       -1.65724
H          4.08044        3.63372       -1.98020
H          4.29180        1.86980       -1.79985
H          2.72049        2.50333       -2.29778
C          1.98891        3.71551        0.07586
O          0.87289        2.87141       -0.23853
C          1.94238        4.94843       -0.80640
H          1.87246        4.67682       -1.86768
H          1.06424        5.56164       -0.55088
H          2.83866        5.57066       -0.66123
C          1.86125        4.10242        1.54665
H          1.92548        3.21071        2.18794
H          2.64081        4.81434        1.85437
H          0.88101        4.57292        1.71660
B          1.22380       -0.71724        1.33153
O          1.22927       -0.25860        2.65618
C          2.36836       -0.79749        3.32962
C          3.49424        0.22348        3.20530
H          3.73265        0.40402        2.14812
H          3.15193        1.17536        3.63838
H          4.40117       -0.09304        3.74131
C          2.02167       -1.02613        4.78938
H          1.82935       -0.05921        5.27729
H          2.85187       -1.51651        5.32084
H          1.12013       -1.64283        4.89971
C          2.64549       -2.09791        2.50446
O          2.15571       -1.74653        1.21174
C          4.10908       -2.48436        2.39106
H          4.54602       -2.68163        3.38222
H          4.20340       -3.39963        1.78784
H          4.69073       -1.69505        1.89830
C          1.82363       -3.28958        2.98844
H          0.76322       -3.01607        3.09592
H          1.89539       -4.09183        2.23914
H          2.18283       -3.68093        3.95162
H         -3.96712       -4.61478       -0.83396
H         -4.63647        1.76660       -3.64030
C         -1.78439        0.19983        2.13024
C         -3.09404       -0.22774        1.85850
C         -1.34905        1.45860        1.72456
Cl        -3.60214       -1.79808        2.37149
C         -3.95088        0.62905        1.17569
C         -2.22948        2.33627        1.03119
H         -0.38291        1.82145        2.07218
C         -3.53697        1.90531        0.77821
Cl        -5.55038        0.11667        0.75450
N         -1.75676        3.55499        0.63352
H         -4.24215        2.53092        0.23313
H         -0.76436        3.52642        0.38104
C         -2.58284        4.51254       -0.03642
H         -1.98823        5.41075       -0.25338
H         -3.42712        4.82031        0.60312
H         -3.00863        4.14735       -0.99197
