102
Int1_comp75_0_Sub9.log	Energy: -1601852.1126668
N          1.42440       -1.50632        0.91500
C          2.39699       -1.09742        1.74841
C          3.17686       -2.01754        2.45498
C          2.93890       -3.37528        2.29124
C          1.91081       -3.78133        1.44502
C          1.17133       -2.80992        0.78422
H          0.33425       -3.06591        0.13336
H          1.67554       -4.83612        1.29655
H          3.95295       -1.67529        3.13903
C          2.53198        0.36336        1.91543
N          1.55616        1.11058        1.36505
C          1.54839        2.43445        1.55207
C          2.54236        3.08636        2.27229
C          3.58552        2.33396        2.80571
C          3.57570        0.95610        2.63326
H          4.37879        0.34512        3.04476
H          2.49780        4.16926        2.39705
H          0.70155        2.96202        1.10381
Ir         0.12369        0.04556        0.03646
H          0.35479        1.43748       -2.51891
B         -1.23559       -0.42047        1.44518
O         -1.04664       -1.48219        2.32283
C         -2.03569       -1.41208        3.34866
C         -2.42651       -2.82104        3.75428
H         -2.73257       -3.41206        2.88175
H         -3.25097       -2.81025        4.48382
H         -1.56479       -3.32319        4.21872
C         -1.40612       -0.67485        4.52715
H         -2.07371       -0.63756        5.40064
H         -0.48313       -1.19922        4.81526
H         -1.13674        0.35317        4.24326
C         -3.17043       -0.58729        2.65519
O         -2.42409        0.22844        1.74745
C         -4.10322       -1.45731        1.81916
H         -3.52347       -2.08993        1.13279
H         -4.75269       -2.08556        2.44662
H         -4.74004       -0.80190        1.20728
C         -3.96865        0.30812        3.58506
H         -3.32856        1.05633        4.07036
H         -4.74007        0.84362        3.01197
H         -4.47501       -0.28401        4.36292
B         -1.21278        1.52675       -0.39771
O         -2.26095        1.49398       -1.31115
C         -3.12912        2.60418       -1.09946
C         -3.66227        3.07371       -2.44298
H         -2.85038        3.28029       -3.15224
H         -4.29331        2.28579       -2.87918
H         -4.27698        3.98034       -2.33284
C         -4.28235        2.12153       -0.22532
H         -5.02277        2.91442       -0.04339
H         -4.78638        1.29041       -0.74062
H         -3.90063        1.73753        0.72926
C         -2.19149        3.63023       -0.36653
O         -1.19629        2.78684        0.21241
C         -2.86106        4.42306        0.74293
H         -3.24005        3.75634        1.52747
H         -2.13021        5.10544        1.20249
H         -3.69494        5.02775        0.35467
C         -1.48841        4.58091       -1.32992
H         -0.99954        4.02493       -2.14299
H         -2.18438        5.30603       -1.77593
H         -0.71784        5.14014       -0.77844
B         -1.06566       -1.06812       -1.16866
O         -1.01735       -1.04594       -2.56550
C         -2.08944       -1.83309       -3.08405
C         -3.27208       -0.90135       -3.32547
H         -3.59233       -0.43268       -2.38558
H         -2.94982       -0.09284       -3.99700
H         -4.12052       -1.42722       -3.78788
C         -1.64907       -2.47144       -4.38899
H         -1.48517       -1.68786       -5.14329
H         -2.41905       -3.15809       -4.77347
H         -0.70902       -3.02619       -4.27100
C         -2.34471       -2.83730       -1.91207
O         -1.95186       -2.07324       -0.77120
C         -3.78885       -3.27420       -1.74711
H         -4.15284       -3.78646       -2.65113
H         -3.87159       -3.97426       -0.90232
H         -4.44174       -2.41708       -1.53954
C         -1.42998       -4.05768       -1.97494
H         -0.38194       -3.75536       -2.11982
H         -1.50264       -4.60148       -1.02117
H         -1.70965       -4.74589       -2.78607
H          3.54188       -4.10861        2.83102
H          4.39779        2.81327        3.35643
C          1.29438        1.20976       -2.01540
C          1.76893       -0.11134       -2.00538
C          2.17313        2.22577       -1.56867
C          3.07412       -0.41248       -1.54330
H          1.16888       -0.88445       -2.48315
C          3.44283        1.87304       -1.08766
C          2.11601        3.65641       -1.46496
C          3.92769        0.56679       -1.05777
C          3.59337       -1.81602       -1.66684
O          4.12405        2.97736       -0.70279
C          3.31183        4.03682       -0.94039
H          1.28952        4.30694       -1.73379
H          4.93131        0.33811       -0.69812
H          3.72335        5.01038       -0.68540
F          4.27065       -2.19792       -0.57318
F          4.44172       -1.93754       -2.69696
F          2.61705       -2.70790       -1.86244
