109
Int1_comp175_1_Sub20.log	Energy: -1740253.4455163
N          0.24835        2.19750       -1.51135
C         -0.33931        3.28152       -0.97750
C         -0.19954        4.53845       -1.57417
C          0.56319        4.66350       -2.72852
C          1.16557        3.52915       -3.26725
C          0.97786        2.31208       -2.62300
H          1.42005        1.38323       -2.99529
H          1.77291        3.57951       -4.17223
H         -0.68521        5.41395       -1.14417
C         -1.11286        3.05483        0.26263
N         -1.21807        1.77544        0.67057
C         -1.86771        1.49017        1.80200
C         -2.46624        2.47600        2.58041
C         -2.37940        3.80145        2.16609
C         -1.68956        4.09445        0.99558
H         -1.59286        5.12756        0.66314
H         -2.98907        2.19781        3.49690
H         -1.86458        0.43355        2.08777
Ir         0.09574        0.29444       -0.37030
H         -0.40525       -1.36637       -2.70264
B          1.53891        0.91344        0.87513
O          2.24821        2.08329        0.62239
C          2.89967        2.48247        1.82920
C          4.22364        3.13747        1.48361
H          4.83350        2.48366        0.84721
H          4.79498        3.38195        2.39228
H          4.04070        4.07160        0.93199
C          1.97716        3.48150        2.52292
H          2.42860        3.90354        3.43282
H          1.76436        4.30528        1.82549
H          1.02001        3.00933        2.79071
C          3.01541        1.12674        2.60495
O          1.87281        0.41536        2.12123
C          4.25278        0.32716        2.21288
H          4.30466        0.21486        1.12186
H          5.17734        0.79159        2.58615
H          4.17198       -0.68246        2.64016
C          2.91581        1.24401        4.11476
H          1.95352        1.67382        4.42169
H          2.99787        0.24467        4.56710
H          3.72895        1.86748        4.51747
B         -0.02596       -1.33040        0.84818
O          0.59586       -2.56323        0.69510
C          0.56200       -3.26614        1.93683
C          0.47678       -4.75789        1.66779
H         -0.34298       -5.00503        0.98229
H          1.41037       -5.09609        1.19467
H          0.34902       -5.32010        2.60585
C          1.86034       -2.93593        2.66765
H          1.95156       -3.48447        3.61700
H          2.70235       -3.21545        2.01796
H          1.93148       -1.85544        2.85185
C         -0.70084       -2.64633        2.63224
O         -0.78666       -1.35610        2.02223
C         -0.57147       -2.46182        4.13445
H          0.25028       -1.77571        4.37545
H         -1.50188       -2.03327        4.53730
H         -0.39414       -3.42374        4.63940
C         -1.98418       -3.40182        2.30803
H         -2.06665       -3.58800        1.22959
H         -2.03445       -4.36809        2.83053
H         -2.84474       -2.79161        2.62188
B          1.63624       -0.72620       -1.19439
O          1.67095       -1.19813       -2.51675
C          2.81520       -2.05123       -2.66025
C          2.36603       -3.46777       -2.31918
H          1.98426       -3.51588       -1.28888
H          1.54282       -3.75759       -2.98783
H          3.18004       -4.19724       -2.44231
C          3.31425       -1.97629       -4.09040
H          2.56043       -2.40469       -4.76731
H          4.24483       -2.55170       -4.21216
H          3.49980       -0.93954       -4.40123
C          3.78497       -1.45643       -1.58767
O          2.87630       -0.96062       -0.60871
C          4.70823       -2.46905       -0.93421
H          5.36248       -2.94942       -1.67808
H          5.34550       -1.96441       -0.19296
H          4.13365       -3.24465       -0.41246
C          4.58910       -0.26823       -2.10877
H          3.93191        0.46930       -2.59232
H          5.07809        0.22974       -1.25880
H          5.36570       -0.57422       -2.82521
H          0.68340        5.63915       -3.20440
H         -2.83389        4.60324        2.75205
C         -1.31924       -1.20496       -2.12841
C         -1.93885        0.04373       -2.09156
C         -1.98577       -2.28377       -1.51158
C         -3.16348        0.22018       -1.42029
H         -1.54158        0.87488       -2.67222
C         -1.44346       -3.60556       -1.57593
C         -3.20130       -2.08198       -0.86422
C         -3.83742       -0.83013       -0.78168
Cl        -3.77993        1.85028       -1.47919
N         -1.04084       -4.69167       -1.63451
H         -3.67828       -2.94724       -0.41026
C         -5.19116       -0.70479       -0.06452
C         -5.08075        0.27142        1.11596
H         -6.05789        0.36098        1.61640
H         -4.35362       -0.10272        1.85194
H         -4.76530        1.27448        0.80444
C         -6.27128       -0.24686       -1.05782
H         -6.36563       -0.96857       -1.88361
H         -7.24483       -0.18735       -0.54627
H         -6.05498        0.73827       -1.48852
C         -5.64926       -2.04962        0.51023
H         -6.61211       -1.90806        1.02303
H         -5.80385       -2.80739       -0.27263
H         -4.93777       -2.44959        1.24808
