106
Int1_comp42_0_Sub21.log	Energy: -1380261.7538920
N         -1.28367       -1.88268        0.41339
C         -2.35416       -2.06078       -0.38144
C         -3.09435       -3.24869       -0.33741
C         -2.71750       -4.25377        0.54336
C         -1.60956       -4.04946        1.36432
C         -0.92210       -2.84696        1.26365
H         -0.05267       -2.62326        1.88631
H         -1.27694       -4.80889        2.07366
H         -3.95512       -3.38988       -0.99063
C         -2.67674       -0.94066       -1.28984
N         -1.84163        0.11410       -1.24373
C         -2.05724        1.16551       -2.04109
C         -3.12816        1.21681       -2.92646
C         -4.00330        0.13422       -2.98544
C         -3.77242       -0.95879       -2.16019
H         -4.44206       -1.81780       -2.19127
H         -3.26383        2.09398       -3.56121
H         -1.31335        1.96432       -1.96543
Ir        -0.11700       -0.02233        0.14966
H         -1.07567       -0.10013        2.82826
B          1.13095       -0.95730       -1.12831
O          1.18327       -2.34888       -1.22412
C          1.93763       -2.70174       -2.38084
C          2.71239       -3.97573       -2.09659
H          3.31754       -3.87409       -1.18657
H          3.37499       -4.23547       -2.93666
H          2.00975       -4.80868       -1.94430
C          0.93941       -2.93232       -3.51281
H          1.42609       -3.28122       -4.43568
H          0.21485       -3.69485       -3.19049
H          0.38360       -2.00901       -3.73357
C          2.82219       -1.42766       -2.60360
O          1.99947       -0.39701       -2.05660
C          4.11639       -1.45875       -1.79716
H          3.90013       -1.64925       -0.73771
H          4.82290       -2.21041       -2.17954
H          4.59367       -0.47006       -1.85785
C          3.11717       -1.10193       -4.05709
H          2.19499       -0.91936       -4.62368
H          3.73045       -0.19024       -4.11089
H          3.67668       -1.91778       -4.54066
B          0.91768        1.65360       -0.32647
O          1.91479        2.28608        0.42112
C          2.55331        3.26056       -0.40046
C          3.06469        4.39324        0.47014
H          2.26968        4.80252        1.10732
H          3.86385        4.01949        1.12744
H          3.48168        5.20721       -0.14298
C          3.71182        2.56068       -1.10589
H          4.30790        3.25488       -1.71703
H          4.36367        2.11299       -0.34174
H          3.33285        1.74260       -1.73541
C          1.40181        3.64946       -1.38391
O          0.66033        2.43323       -1.46230
C          1.85822        4.04104       -2.77753
H          2.38338        3.21036       -3.26558
H          0.98569        4.29952       -3.39639
H          2.52498        4.91675       -2.74587
C          0.47434        4.71643       -0.80898
H          0.15752        4.44999        0.20994
H          0.94893        5.70851       -0.78143
H         -0.42551        4.78303       -1.43890
B          1.41391       -0.33937        1.42432
O          1.22809       -0.41596        2.81662
C          2.50984       -0.34019        3.44472
C          2.79205        1.13691        3.70563
H          2.80413        1.69551        2.75770
H          1.98019        1.54344        4.32691
H          3.74398        1.29092        4.23529
C          2.47591       -1.11601        4.74794
H          1.78802       -0.62527        5.45248
H          3.47295       -1.14978        5.21376
H          2.12531       -2.14529        4.59464
C          3.44095       -0.93949        2.34018
O          2.75893       -0.57367        1.14681
C          4.84311       -0.35710        2.30463
H          5.37322       -0.53340        3.25353
H          5.41985       -0.83166        1.49686
H          4.81481        0.72202        2.10721
C          3.50644       -2.46421        2.38430
H          2.49698       -2.89962        2.41743
H          3.99283       -2.82465        1.46616
H          4.07955       -2.83227        3.24824
H         -3.28203       -5.18765        0.58718
H         -4.85463        0.13727       -3.66972
C         -1.59083        0.56353        2.13705
N         -2.92642        0.42395        1.83218
C         -1.19697        1.82340        1.67850
C         -3.39085        1.52831        1.16574
H         -3.46891       -0.40339        2.02772
C         -2.34452        2.42320        1.07349
H         -0.25082        2.30344        1.91730
C         -4.77644        1.63665        0.61338
H         -2.39193        3.40126        0.59892
H         -4.77648        1.35491       -0.45689
H         -5.04223        2.70512        0.63364
C         -5.86825        0.82668        1.32874
H         -5.65116        0.84792        2.41240
C         -7.23385        1.47117        1.11673
H         -8.03284        0.89134        1.60434
H         -7.26310        2.49406        1.52206
H         -7.47382        1.52998        0.04182
C         -5.90595       -0.62967        0.86682
H         -4.93447       -1.14100        0.94556
H         -6.63804       -1.21353        1.44588
H         -6.19940       -0.68245       -0.19455
