101
Int1_comp171_9_Sub22.log	Energy: -1435831.7272076
N          1.26375       -2.11895       -0.37897
C          2.45563       -2.24507        0.23102
C          3.18784       -3.43310        0.13587
C          2.65950       -4.50117       -0.57735
C          1.40047       -4.36869       -1.15913
C          0.73447       -3.15661       -1.02880
H         -0.26094       -2.99586       -1.44682
H          0.93593       -5.18848       -1.70908
H          4.16294       -3.52268        0.61269
C          2.90864       -1.07946        1.01878
N          2.07302       -0.02378        1.04517
C          2.38091        1.04654        1.78553
C          3.55219        1.11832        2.53186
C          4.43987        0.04643        2.49193
C          4.11406       -1.06631        1.72744
H          4.79956       -1.91056        1.67245
H          3.76056        2.01104        3.12362
H          1.64223        1.85475        1.76830
Ir         0.24469       -0.16398       -0.22466
H          0.19903        2.06430       -2.08468
B         -0.93928       -0.97541        1.20774
O         -0.97424       -2.34619        1.41476
C         -1.67931       -2.60610        2.63026
C         -2.47030       -3.89144        2.47501
H         -3.11329       -3.85345        1.58656
H         -3.09697       -4.08082        3.36003
H         -1.77861       -4.73894        2.35815
C         -0.63219       -2.75438        3.72985
H         -1.07928       -3.02957        4.69632
H          0.07567       -3.54347        3.43632
H         -0.06505       -1.82038        3.85646
C         -2.54987       -1.31450        2.79143
O         -1.74054       -0.33339        2.13315
C         -3.86802       -1.38933        2.02953
H         -3.69024       -1.68947        0.98796
H         -4.57886       -2.08284        2.50255
H         -4.31842       -0.38600        2.01219
C         -2.78799       -0.88142        4.22612
H         -1.84576       -0.65194        4.74017
H         -3.40994        0.02560        4.24170
H         -3.31783       -1.66515        4.78911
B         -0.74055        1.54327        0.34345
O         -1.99701        1.96911       -0.05294
C         -2.24183        3.28737        0.44431
C         -1.94170        4.26371       -0.68797
H         -0.88023        4.23221       -0.97104
H         -2.54239        3.98199       -1.56494
H         -2.19051        5.29924       -0.41406
C         -3.70125        3.38950        0.85096
H         -3.91178        4.35644        1.33292
H         -4.34013        3.30810       -0.04099
H         -3.97649        2.58123        1.54051
C         -1.22380        3.39642        1.63047
O         -0.19634        2.48212        1.21886
C         -1.78833        2.87523        2.94718
H         -2.20041        1.86613        2.81863
H         -0.96893        2.80948        3.67835
H         -2.55872        3.54651        3.35423
C         -0.62176        4.77545        1.82712
H         -0.05059        5.10473        0.95079
H         -1.40919        5.51357        2.04462
H          0.06588        4.75685        2.68603
B         -1.41177       -0.42400       -1.37578
O         -1.56058        0.10541       -2.66155
C         -2.90334       -0.10897       -3.10473
C         -3.70798        1.13688       -2.75280
H         -3.69281        1.31052       -1.66872
H         -3.23504        2.00594       -3.23332
H         -4.74677        1.06760       -3.10749
C         -2.90039       -0.32444       -4.60734
H         -2.57760        0.59918       -5.10978
H         -3.90864       -0.57444       -4.97177
H         -2.21135       -1.12662       -4.90251
C         -3.32462       -1.35823       -2.26056
O         -2.51717       -1.22126       -1.09119
C         -4.78720       -1.38994       -1.85587
H         -5.44219       -1.39579       -2.74066
H         -4.99325       -2.30085       -1.27432
H         -5.04357       -0.52522       -1.23111
C         -2.93477       -2.67769       -2.92095
H         -1.88581       -2.65393       -3.25262
H         -3.04261       -3.48523       -2.18188
H         -3.56775       -2.91278       -3.78909
H          3.22211       -5.43278       -0.66751
H          5.37923        0.07337        3.04830
C          1.12967        1.54557       -1.85533
C          1.36099        0.26847       -2.40521
C          2.23360        2.27142       -1.31319
C          2.64357       -0.29431       -2.31408
H          0.58943       -0.19001       -3.02228
C          3.50684        1.71218       -1.20219
C          2.02293        3.62498       -0.90494
C          3.68588        0.38935       -1.69495
H          2.83212       -1.28531       -2.73124
C          4.66736        2.45750       -0.62433
N          1.85671        4.73289       -0.60336
C          4.94664       -0.26491       -1.53361
N          5.95327       -0.81819       -1.36568
H          5.41321        2.67486       -1.40561
H          5.17584        1.85238        0.14067
H          4.35600        3.40772       -0.17307
