99
Int1_comp15_2_Sub8.log	Energy: -1445264.7883004
N          0.64322       -2.46177        0.30480
C          1.83038       -2.74332        0.87387
C          2.11815       -4.03570        1.32243
C          1.16629       -5.03732        1.18065
C         -0.05907       -4.72333        0.60074
C         -0.28011       -3.41780        0.17961
H         -1.22966       -3.10126       -0.25272
H         -0.84204       -5.47272        0.47580
H          3.07817       -4.25827        1.78630
C          2.78299       -1.62067        0.99834
N          2.34451       -0.41767        0.58386
C          3.14591        0.64429        0.68449
C          4.44410        0.55927        1.17710
C          4.91566       -0.67911        1.59566
C          4.07166       -1.78012        1.51332
H          4.42262       -2.75935        1.83666
H          5.06640        1.45432        1.21184
H          2.70493        1.59343        0.37440
Ir         0.27299       -0.36777       -0.27086
H         -0.24946        0.71950       -2.76691
B         -0.55120        0.00429        1.56115
O         -0.07408       -0.67209        2.67177
C         -0.54379        0.01685        3.83669
C         -0.74429       -0.98361        4.95774
H         -1.39283       -1.81082        4.64182
H         -1.18859       -0.50177        5.84217
H          0.22723       -1.40729        5.25190
C          0.52951        1.03679        4.20550
H          0.28696        1.57829        5.13155
H          1.48160        0.50605        4.35230
H          0.67140        1.76209        3.39006
C         -1.85295        0.68814        3.30601
O         -1.53294        0.90553        1.92638
C         -3.05621       -0.24612        3.34642
H         -2.82547       -1.20206        2.85551
H         -3.39537       -0.43542        4.37535
H         -3.88130        0.22044        2.78986
C         -2.19184        2.01747        3.95376
H         -1.39296        2.75431        3.80077
H         -3.11473        2.42110        3.51231
H         -2.35655        1.89568        5.03541
B         -0.00774        1.67704       -0.26124
O         -0.90652        2.42770       -0.98822
C         -0.83764        3.79166       -0.56387
C         -1.03434        4.68724       -1.77343
H         -0.32463        4.44063       -2.57326
H         -2.05183        4.55002       -2.16818
H         -0.91257        5.74783       -1.50477
C         -1.96227        4.00737        0.44284
H         -1.99900        5.04593        0.80304
H         -2.92025        3.77663       -0.04442
H         -1.85030        3.32408        1.29516
C          0.58779        3.87204        0.08537
O          0.80372        2.51642        0.49840
C          0.68409        4.77108        1.30438
H          0.00319        4.44200        2.10007
H          1.70985        4.74452        1.70094
H          0.44687        5.81425        1.04543
C          1.68151        4.21860       -0.91870
H          1.64609        3.54291       -1.78536
H          1.60580        5.25966       -1.26479
H          2.66472        4.09352       -0.44022
B         -1.67502       -0.54039       -0.81931
O         -2.28444       -0.04482       -1.96655
C         -3.70035       -0.14771       -1.80629
C         -4.17103        1.14999       -1.15763
H         -3.71553        1.27164       -0.16425
H         -3.83105        1.99009       -1.77893
H         -5.26631        1.19301       -1.06539
C         -4.34994       -0.32753       -3.16533
H         -4.19169        0.57687       -3.77097
H         -5.43496       -0.48357       -3.06468
H         -3.92392       -1.18016       -3.71030
C         -3.82319       -1.37577       -0.84726
O         -2.61321       -1.27812       -0.09144
C         -5.01006       -1.32978        0.09654
H         -5.95806       -1.32908       -0.46315
H         -4.99962       -2.21448        0.75034
H         -4.97688       -0.43887        0.73511
C         -3.79142       -2.71004       -1.58662
H         -2.93045       -2.75760       -2.26892
H         -3.68938       -3.52166       -0.85045
H         -4.71156       -2.88810       -2.16210
H          1.37922       -6.05078        1.52760
H          5.93136       -0.79207        1.98056
C          0.69117        0.26690       -2.44506
C          0.88454       -1.15517       -2.45845
N          1.79857        1.07226       -2.48865
C          2.22598       -1.60552       -2.36719
O         -0.05041       -2.07238       -2.83174
C          2.97564        0.51320       -2.37882
N          3.26571       -0.80507       -2.29637
H          2.40418       -2.68813       -2.37581
C          4.11355        1.41122       -2.33583
N          5.01692        2.13241       -2.26235
C         -0.70570       -1.80604       -4.05495
H         -1.38456       -0.94547       -3.96260
H          0.02525       -1.62782       -4.86310
H         -1.29293       -2.70201       -4.29767
