101
Int1_comp44_0_Sub23.log	Energy: -1378117.5694794
N          1.78998        1.53392        0.55373
C          1.74606        2.87594        0.43507
C          2.83458        3.67035        0.80122
C          3.98580        3.06406        1.29437
C          4.01357        1.68014        1.41595
C          2.88806        0.95311        1.03810
H          2.84466       -0.13268        1.12838
H          4.89407        1.14553        1.77215
H          2.79208        4.75314        0.68357
C          0.49275        3.43620       -0.10357
N         -0.37368        2.54775       -0.62410
C         -1.55901        2.96979       -1.07557
C         -1.92868        4.30805       -1.06106
C         -1.03531        5.24334       -0.54310
C          0.18532        4.80001       -0.05295
H          0.88787        5.50624        0.38912
H         -2.90761        4.60318       -1.44231
H         -2.23376        2.18560       -1.42595
Ir         0.12556        0.41493       -0.39933
H          0.70847       -1.46252       -2.37286
B         -1.12060        0.38371        1.21749
O         -1.75520       -0.70449        1.80354
C         -2.41848       -0.27183        2.99137
C         -3.70636       -1.05987        3.14770
H         -4.31961       -0.99733        2.23954
H         -4.29605       -0.69200        4.00157
H         -3.47262       -2.12010        3.32533
C         -1.48036       -0.54760        4.16260
H         -1.93703       -0.28818        5.12906
H         -1.23280       -1.61901        4.17540
H         -0.54039        0.01146        4.04889
C         -2.61153        1.25685        2.71811
O         -1.49278        1.54996        1.87843
C         -3.86789        1.55560        1.90505
H         -3.89506        0.93061        1.00065
H         -4.78759        1.40184        2.48880
H         -3.83190        2.60779        1.58489
C         -2.55248        2.14116        3.94959
H         -1.58580        2.05152        4.46179
H         -2.68051        3.19256        3.65238
H         -3.35509        1.88641        4.65896
B         -1.49824       -0.38043       -1.31835
O         -1.49975       -1.32338       -2.34331
C         -2.82944       -1.81031       -2.51496
C         -3.02527       -2.23034       -3.95954
H         -2.75220       -1.42478       -4.65365
H         -2.38372       -3.09620       -4.17952
H         -4.06964       -2.52317       -4.14861
C         -2.99797       -3.00698       -1.58362
H         -3.97501       -3.49584       -1.71316
H         -2.20208       -3.73227       -1.80226
H         -2.87855       -2.69927       -0.53514
C         -3.68009       -0.57929       -2.06131
O         -2.82291        0.02752       -1.09349
C         -5.00390       -0.92426       -1.40314
H         -4.84975       -1.52193       -0.49565
H         -5.52898       -0.00100       -1.11554
H         -5.65435       -1.48624       -2.09111
C         -3.89693        0.43206       -3.18282
H         -2.94470        0.68134       -3.67395
H         -4.59767        0.06118       -3.94526
H         -4.31666        1.35515       -2.75500
B          0.49670       -1.46128        0.32733
O          1.35884       -1.68764        1.40581
C          1.60935       -3.08667        1.52948
C          2.93848       -3.37519        0.83606
H          2.88046       -3.11371       -0.23080
H          3.71913       -2.75731        1.30578
H          3.23479       -4.43016        0.92858
C          1.70458       -3.43993        3.00288
H          2.58234       -2.94542        3.44513
H          1.81496       -4.52591        3.14594
H          0.81614       -3.09883        3.54898
C          0.38560       -3.71396        0.77607
O          0.03577       -2.68268       -0.14326
C          0.69835       -4.98025       -0.00266
H          1.05394       -5.78042        0.66488
H         -0.21468       -5.33515       -0.50284
H          1.45580       -4.80100       -0.77660
C         -0.81654       -3.94490        1.68627
H         -1.08389       -3.01595        2.20661
H         -1.67671       -4.23166        1.06436
H         -0.63451       -4.74694        2.41676
H          4.85077        3.67054        1.57244
H         -1.29222        6.30421       -0.50589
C          1.36372       -0.63349       -2.11312
O          2.66173       -0.97071       -1.82021
C          1.32643        0.71323       -2.49673
C          3.42972        0.14261       -1.94087
C          2.68091        1.19413       -2.36420
H          0.52608        1.18569       -3.06132
C          4.88006       -0.04012       -1.66661
H          3.04231        2.20443       -2.54279
N          5.11960       -0.77525       -0.44571
H          5.34531        0.95802       -1.60250
H          5.34503       -0.54132       -2.54936
H          4.51052       -1.58918       -0.42289
C          6.49432       -1.15829       -0.26097
H          6.59338       -1.77822        0.64253
H          7.12236       -0.26310       -0.11381
H          6.93158       -1.72327       -1.11374
