108
Int1_comp167_7_Sub20.log	Energy: -1642774.1641682
N          1.17207       -2.41845        1.18933
C          0.67827       -3.55428        0.66663
C          1.10756       -4.80469        1.12323
C          2.05688       -4.87046        2.13534
C          2.56047       -3.68469        2.66401
C          2.09016       -2.48050        2.15476
H          2.45729       -1.52045        2.52236
H          3.31139       -3.68521        3.45546
H          0.71440       -5.72014        0.68184
C         -0.30806       -3.39165       -0.42295
N         -0.48070       -2.13611       -0.87945
C         -1.31073       -1.91208       -1.90081
C         -2.03677       -2.93510       -2.50433
C         -1.90039       -4.23089       -2.01734
C         -1.02055       -4.46275       -0.96703
H         -0.89863       -5.46936       -0.56818
H         -2.70286       -2.70744       -3.33805
H         -1.35708       -0.87374       -2.24209
Ir         0.55963       -0.50810        0.22691
H         -1.24230        1.26336        1.88000
B          2.29221       -0.48250       -0.77167
O          3.30308       -1.39564       -0.47358
C          4.27444       -1.35252       -1.51797
C          5.64743       -1.61423       -0.92724
H          5.86018       -0.92520       -0.09988
H          6.43471       -1.50707       -1.68924
H          5.68991       -2.64075       -0.53348
C          3.90850       -2.44962       -2.51397
H          4.64679       -2.54069       -3.32427
H          3.85982       -3.40851       -1.97704
H          2.91975       -2.25819       -2.95644
C          4.06842        0.08673       -2.10062
O          2.68334        0.31580       -1.83477
C          4.86769        1.14558       -1.34900
H          4.67296        1.07915       -0.27067
H          5.94695        1.05736       -1.54278
H          4.53554        2.14085       -1.67757
C          4.30617        0.21028       -3.59510
H          3.62097       -0.43018       -4.16517
H          4.13471        1.25040       -3.90982
H          5.34243       -0.05623       -3.85463
B          0.10435        1.07924       -0.95986
O          0.09169        2.43655       -0.65694
C          0.12509        3.19330       -1.86605
C         -0.70466        4.45224       -1.68322
H         -1.72596        4.21627       -1.35832
H         -0.24323        5.08443       -0.91018
H         -0.75282        5.03479       -2.61598
C          1.58601        3.55868       -2.11286
H          1.71441        4.17290       -3.01626
H          1.95412        4.13021       -1.24846
H          2.19381        2.64750       -2.19193
C         -0.44455        2.17867       -2.92925
O         -0.22784        0.91508       -2.30517
C          0.29295        2.18323       -4.25915
H          1.34519        1.90519       -4.12198
H         -0.16559        1.44483       -4.93383
H          0.23858        3.16957       -4.74495
C         -1.94270        2.32323       -3.16827
H         -2.49629        2.30257       -2.22020
H         -2.18862        3.25426       -3.69998
H         -2.28798        1.47763       -3.78232
B          1.48404        0.90161        1.34301
O          0.99722        1.30958        2.59451
C          1.67732        2.50715        2.98003
C          0.84534        3.68121        2.47264
H          0.72835        3.62486        1.38066
H         -0.15900        3.62019        2.91828
H          1.28468        4.65060        2.75095
C          1.78863        2.55078        4.49278
H          0.78432        2.63762        4.93300
H          2.37999        3.41983        4.82016
H          2.25299        1.63898        4.89064
C          3.03777        2.35889        2.22068
O          2.66384        1.59201        1.08003
C          3.65393        3.66631        1.75596
H          3.87262        4.32831        2.60810
H          4.59749        3.46442        1.22766
H          2.98551        4.19025        1.06134
C          4.06476        1.54328        3.00190
H          3.62285        0.60417        3.36666
H          4.89787        1.28634        2.33142
H          4.46901        2.09650        3.86247
H          2.40476       -5.83879        2.50149
H         -2.47029       -5.05582       -2.45013
C         -1.72929        0.31727        1.65046
C         -1.22884       -0.85004        2.22981
C         -2.92981        0.28301        0.91898
C         -1.91526       -2.04355        2.01471
H         -0.38049       -0.77846        2.91101
C         -3.62020       -0.90806        0.60955
I         -3.61527        2.26370        0.54575
C         -3.03499       -2.05441        1.20327
H         -1.59133       -2.98855        2.45269
C         -4.91383       -0.97654       -0.23741
F         -3.57081       -3.26857        1.01626
C         -4.70465       -0.27220       -1.58816
H         -5.64409       -0.30041       -2.16155
H         -4.40522        0.77724       -1.50006
H         -3.93412       -0.79262       -2.17429
C         -5.37225       -2.40044       -0.59501
H         -5.68806       -2.97828        0.28150
H         -6.23847       -2.30979       -1.26806
H         -4.59330       -2.96874       -1.12015
C         -6.06639       -0.33871        0.55532
H         -6.99231       -0.38115       -0.03993
H         -6.23792       -0.89314        1.49054
H         -5.88004        0.71161        0.81121
