108
Int1_comp173_5_Sub12.log	Energy: -1744651.4127733
N         -0.90773       -2.30016       -1.24967
C         -0.55171       -3.44601       -0.64649
C         -1.10826       -4.66727       -1.03699
C         -2.03739       -4.69275       -2.06926
C         -2.38456       -3.49786       -2.69377
C         -1.79158       -2.32321       -2.24772
H         -2.02592       -1.35423       -2.69547
H         -3.10681       -3.46837       -3.51097
H         -0.82440       -5.59213       -0.53579
C          0.44009       -3.32211        0.44385
N          0.80434       -2.06841        0.77382
C          1.67630       -1.86957        1.76585
C          2.24945       -2.92236        2.47161
C          1.89713       -4.22536        2.13217
C          0.97786       -4.42702        1.10963
H          0.68625       -5.43866        0.82912
H          2.95822       -2.71292        3.27441
H          1.87508       -0.82152        2.00571
Ir        -0.21307       -0.40312       -0.31335
H          1.24310        1.48452       -2.24442
B         -1.81178       -0.45028        0.89158
O         -2.81251       -1.40484        0.71719
C         -3.63357       -1.41535        1.88437
C         -5.06083       -1.73732        1.48304
H         -5.41578       -1.05301        0.70191
H         -5.74049       -1.67318        2.34672
H         -5.10956       -2.76138        1.08375
C         -3.08293       -2.50080        2.80569
H         -3.69818       -2.63506        3.70758
H         -3.06203       -3.45169        2.25278
H         -2.05315       -2.26410        3.11219
C         -3.41507        0.02741        2.45218
O         -2.08650        0.31591        2.01260
C         -4.34484        1.05622        1.81792
H         -4.28857        0.99988        0.72279
H         -5.38636        0.92582        2.14715
H         -4.01036        2.06251        2.10812
C         -3.46385        0.13281        3.96573
H         -2.68668       -0.48324        4.43617
H         -3.29374        1.17707        4.26722
H         -4.44695       -0.17672        4.35289
B          0.32911        1.19495        0.81984
O          0.21326        2.55060        0.53592
C          0.34773        3.30290        1.73961
C          1.05750        4.60912        1.42781
H          2.01233        4.43411        0.91668
H          0.42618        5.21671        0.76255
H          1.24259        5.18964        2.34464
C         -1.06549        3.57917        2.24507
H         -1.06841        4.19025        3.15980
H         -1.61581        4.12029        1.46172
H         -1.59306        2.63310        2.42612
C          1.15416        2.32282        2.67220
O          0.88803        1.04763        2.09133
C          0.68080        2.29662        4.11668
H         -0.36390        1.96745        4.17939
H          1.29397        1.58573        4.69084
H          0.77632        3.28701        4.58767
C          2.66139        2.54389        2.62319
H          3.01943        2.55463        1.58558
H          2.95753        3.48548        3.10862
H          3.15871        1.71668        3.15247
B         -1.30214        0.97455       -1.31006
O         -1.03431        1.35381       -2.63534
C         -1.78476        2.53724       -2.92497
C         -0.89715        3.72779       -2.57245
H         -0.60776        3.68966       -1.51172
H          0.02347        3.67350       -3.17306
H         -1.38773        4.68853       -2.78788
C         -2.13820        2.55492       -4.40019
H         -1.21926        2.64488       -4.99813
H         -2.78610        3.41197       -4.64063
H         -2.64900        1.63174       -4.70397
C         -3.00291        2.38828       -1.95364
O         -2.43817        1.65044       -0.87499
C         -3.55405        3.69789       -1.41806
H         -3.91812        4.34109       -2.23417
H         -4.39603        3.49451       -0.73992
H         -2.78932        4.24216       -0.84986
C         -4.13150        1.54635       -2.54328
H         -3.74519        0.59821       -2.94538
H         -4.84697        1.30374       -1.74404
H         -4.67099        2.07413       -3.34360
H         -2.48530       -5.63822       -2.38266
H          2.32815       -5.07880        2.66021
C          1.86127        0.65073       -1.91561
C          1.49577       -0.64344       -2.28494
C          3.07357        0.90656       -1.24498
C          2.35305       -1.67461       -1.89354
H          0.64893       -0.81553       -2.94852
C          3.93215       -0.12540       -0.84524
Cl         3.39631        2.60918       -1.04586
C          3.50420       -1.43189       -1.17969
F          2.03888       -2.93580       -2.20465
C          5.27396       -0.04781       -0.08898
H          4.10104       -2.29763       -0.89238
C          5.80851        1.35469        0.21126
H          6.77318        1.24595        0.73133
H          5.98102        1.94079       -0.70055
H          5.13887        1.92604        0.86566
C          5.10184       -0.76493        1.26037
H          4.78827       -1.81191        1.14083
H          6.05408       -0.75691        1.81387
H          4.34510       -0.25313        1.87379
C          6.34947       -0.76548       -0.92284
H          7.31567       -0.72742       -0.39610
H          6.11271       -1.82322       -1.10434
H          6.47519       -0.27585       -1.90050
