111
Int1_comp91_6_Sub19.log	Energy: -1514955.7696340
N          1.32487       -1.12570       -1.11885
C          1.60050       -2.44125       -1.03678
C          2.72006       -2.98403       -1.67459
C          3.53656       -2.15789       -2.43548
C          3.21194       -0.80825       -2.54701
C          2.10000       -0.33038       -1.86242
H          1.78938        0.71889       -1.89622
H          3.81643       -0.12386       -3.14468
H          2.95744       -4.04180       -1.56938
C          0.63829       -3.25660       -0.26616
N         -0.35672       -2.58069        0.33235
C         -1.31317       -3.24770        0.97891
C         -1.31021       -4.63177        1.09481
C         -0.27153       -5.34529        0.50210
C          0.70855       -4.65071       -0.19382
H          1.51777       -5.19106       -0.68371
H         -2.11109       -5.13418        1.63930
H         -2.10947       -2.63712        1.40795
Ir        -0.34456       -0.37692        0.14823
H          0.58232        1.21137        2.32923
B         -1.82188       -0.47033       -1.20329
O         -2.35756        0.56624       -1.95252
C         -3.20037        0.01621       -2.96397
C         -4.37126        0.95350       -3.19753
H         -4.87817        1.19353       -2.25436
H         -5.10072        0.51022       -3.89293
H         -4.01157        1.89569       -3.63731
C         -2.35818       -0.10668       -4.23036
H         -2.94925       -0.45241       -5.09135
H         -1.93685        0.88096       -4.46806
H         -1.51897       -0.80026       -4.07423
C         -3.58279       -1.37328       -2.35132
O         -2.43638       -1.66978       -1.55026
C         -4.78240       -1.28817       -1.41312
H         -4.62796       -0.49195       -0.67158
H         -5.72186       -1.11366       -1.95814
H         -4.86904       -2.24142       -0.87034
C         -3.77919       -2.48598       -3.36429
H         -2.86752       -2.66246       -3.94966
H         -4.02934       -3.42004       -2.83979
H         -4.60392       -2.25099       -4.05478
B         -1.83941        0.17800        1.39584
O         -1.63874        0.40353        2.76432
C         -2.81945        0.98616        3.31968
C         -2.97784        0.51439        4.75398
H         -2.95844       -0.58085        4.82535
H         -2.14906        0.90561        5.36223
H         -3.92112        0.87994        5.18851
C         -2.64410        2.50062        3.27975
H         -3.50204        3.02732        3.72316
H         -1.74308        2.76461        3.85316
H         -2.48805        2.84028        2.24700
C         -3.92395        0.47861        2.33247
O         -3.19670        0.32457        1.11657
C         -5.06920        1.44797        2.10045
H         -4.70603        2.38824        1.66644
H         -5.79028        1.00697        1.39601
H         -5.60040        1.66995        3.03887
C         -4.46838       -0.89576        2.71355
H         -3.64588       -1.59680        2.91987
H         -5.11944       -0.85509        3.59920
H         -5.05099       -1.29266        1.86961
B         -0.32507        1.60848       -0.30225
O          0.35230        2.14690       -1.40339
C          0.28747        3.57224       -1.36726
C          1.60508        4.07924       -0.78885
H          1.73117        3.74098        0.24963
H          2.43751        3.67593       -1.38455
H          1.66977        5.17697       -0.80553
C          0.10537        4.08964       -2.78299
H          1.00322        3.86597       -3.37867
H         -0.04706        5.17992       -2.79233
H         -0.75184        3.60675       -3.26887
C         -0.92959        3.82671       -0.41331
O         -0.91505        2.65659        0.40349
C         -0.80129        5.05429        0.47139
H         -0.71731        5.97051       -0.13323
H         -1.69652        5.14656        1.10369
H          0.07088        4.98754        1.13464
C         -2.26609        3.84371       -1.14884
H         -2.37585        2.93951       -1.76289
H         -3.07441        3.83266       -0.40286
H         -2.38305        4.74074       -1.77493
H          4.41646       -2.56625       -2.93736
H         -0.22968       -6.43433        0.57192
C          1.32539        0.48545        2.00123
C          2.53497        0.87819        1.39392
C          1.16289       -0.86839        2.31505
C          3.51916       -0.05234        1.10460
H          2.68805        1.92811        1.14186
N          2.11626       -1.78637        2.04921
H          0.28582       -1.19967        2.87541
C          3.20449       -1.37915        1.47579
C          4.84241        0.26481        0.46002
F          4.11792       -2.32021        1.20567
H          5.01730       -0.52183       -0.29687
C          6.00134        0.17748        1.46500
H          5.98924       -0.80445        1.96158
H          5.83940        0.93477        2.25299
C          7.34534        0.41357        0.78531
H          8.15688        0.38151        1.53012
H          7.54024       -0.41456        0.07985
C          7.37077        1.73559        0.02610
H          8.33147        1.85994       -0.49937
H          7.30196        2.56919        0.74841
C          6.20868        1.83471       -0.95649
H          6.33509        1.07441       -1.74914
H          6.21388        2.81377       -1.46214
C          4.87176        1.61064       -0.26005
H          4.71059        2.42289        0.47117
H          4.03978        1.67363       -0.97948
