96
Int1_comp27_5_Sub10.log	Energy: -2160457.3243346
N         -0.82341       -2.32225       -0.03834
C         -1.89993       -2.58902       -0.79756
C         -2.34744       -3.90151       -0.97634
C         -1.66299       -4.94222       -0.36273
C         -0.53570       -4.64998        0.40018
C         -0.14779       -3.32283        0.52862
H          0.74154       -3.03521        1.09139
H          0.04276       -5.43490        0.88948
H         -3.21531       -4.11043       -1.60114
C         -2.53558       -1.42514       -1.45108
N         -1.88693       -0.25240       -1.32522
C         -2.36696        0.84027       -1.92844
C         -3.53660        0.81757       -2.67954
C         -4.23266       -0.38149       -2.79903
C         -3.72423       -1.51733       -2.18201
H         -4.25406       -2.46647       -2.25904
H         -3.89628        1.73570       -3.14562
H         -1.77043        1.74798       -1.79391
Ir        -0.12556       -0.22912        0.04043
H         -0.71443        1.74266        2.09805
B          1.32330       -0.73973       -1.25678
O          1.67919       -2.06381       -1.47648
C          2.56075       -2.12386       -2.59699
C          3.59233       -3.20973       -2.35234
H          4.09921       -3.06012       -1.39055
H          4.34686       -3.22937       -3.15376
H          3.09574       -4.19118       -2.32575
C          1.71028       -2.46330       -3.81754
H          2.31802       -2.60470       -4.72342
H          1.16359       -3.39610       -3.61498
H          0.97047       -1.67196       -4.00834
C          3.13832       -0.66847       -2.64452
O          2.06428        0.09102       -2.08245
C          4.34534       -0.48002       -1.73189
H          4.11918       -0.84318       -0.71997
H          5.24021       -0.98821       -2.12073
H          4.56063        0.59602       -1.65619
C          3.43940       -0.14799       -4.03805
H          2.53560       -0.11473       -4.65998
H          3.84155        0.87378       -3.97313
H          4.19177       -0.77719       -4.53817
B          0.60181        1.65011       -0.29604
O          1.71705        2.24888        0.27649
C          1.78499        3.62152       -0.10587
C          1.19998        4.43928        1.04174
H          0.14234        4.18734        1.20430
H          1.75240        4.19944        1.96176
H          1.27919        5.52157        0.86164
C          3.24039        3.99621       -0.32523
H          3.33364        5.02341       -0.71006
H          3.78372        3.93992        0.62980
H          3.72319        3.30754       -1.03024
C          0.89825        3.65662       -1.39917
O          0.01422        2.55345       -1.18391
C          1.68654        3.36169       -2.67053
H          2.24874        2.42494       -2.56206
H          0.97617        3.22618       -3.49953
H          2.37034        4.18296       -2.93134
C          0.07852        4.92292       -1.57269
H         -0.61213        5.07520       -0.73418
H          0.73118        5.80516       -1.65998
H         -0.51840        4.85142       -2.49417
B          1.39604       -0.29997        1.37824
O          1.25720        0.10764        2.71249
C          2.54243        0.11265        3.33783
C          3.10963        1.52212        3.21026
H          3.20188        1.80314        2.15259
H          2.40685        2.22570        3.68065
H          4.08413        1.61972        3.71098
C          2.38311       -0.25914        4.80101
H          1.81014        0.52426        5.31859
H          3.36302       -0.34593        5.29528
H          1.84275       -1.20702        4.92292
C          3.32392       -0.93224        2.47334
O          2.67457       -0.82614        1.20803
C          4.80302       -0.63784        2.29985
H          5.31937       -0.61509        3.27196
H          5.26876       -1.42280        1.68544
H          4.95782        0.32315        1.79341
C          3.12769       -2.36599        2.95885
H          2.06098       -2.57986        3.12384
H          3.49802       -3.05208        2.18292
H          3.67157       -2.56885        3.89314
H         -2.00071       -5.97302       -0.48989
H         -5.16513       -0.43399       -3.36515
C         -1.56868        1.14196        1.78621
C         -1.63596       -0.20488        2.17789
C         -2.68922        1.75511        1.18923
C         -2.82488       -0.92053        1.94891
H         -0.83212       -0.62173        2.78324
C         -3.84179        1.01263        0.94788
Cl        -2.62973        3.42651        0.78364
C         -3.91261       -0.33728        1.32644
Cl        -2.93807       -2.56412        2.48324
Cl        -5.22727        1.73258        0.21283
H         -4.82675       -0.90172        1.14597
