98
Int1_comp16_3_Sub15.log	Energy: -1351087.3391565
N         -1.20907        1.99092        1.33271
C         -1.75988        3.04453        0.69906
C         -2.61781        3.92255        1.36958
C         -2.90570        3.70357        2.71075
C         -2.33377        2.60583        3.34887
C         -1.49186        1.77116        2.62166
H         -1.03523        0.87259        3.05011
H         -2.53796        2.38636        4.39820
H         -3.06454        4.76767        0.84645
C         -1.41519        3.19449       -0.73105
N         -0.63050        2.23419       -1.24812
C         -0.26641        2.29717       -2.53007
C         -0.67986        3.31882       -3.37573
C         -1.50249        4.31700       -2.85805
C         -1.87034        4.25641       -1.52051
H         -2.50653        5.03196       -1.09472
H         -0.36050        3.32644       -4.41912
H          0.38639        1.49173       -2.87452
Ir        -0.05374        0.54924        0.07365
H          1.43999        2.97308        2.12916
B         -1.73067       -0.49723       -0.35598
O         -2.21924       -1.63570        0.28456
C         -3.56279       -1.86212       -0.12532
C         -3.82974       -3.35635       -0.16024
H         -3.07467       -3.87805       -0.76199
H         -4.82761       -3.57339       -0.57239
H         -3.78662       -3.76428        0.86082
C         -4.46767       -1.18797        0.90355
H         -5.53429       -1.38015        0.71313
H         -4.21248       -1.57686        1.90013
H         -4.29898       -0.10090        0.91422
C         -3.59989       -1.15158       -1.51764
O         -2.64549       -0.10626       -1.33993
C         -3.08594       -2.05050       -2.63849
H         -2.11612       -2.48492       -2.35674
H         -3.79441       -2.85553       -2.88485
H         -2.93163       -1.43486       -3.53723
C         -4.93968       -0.54595       -1.89398
H         -5.25074        0.21815       -1.16955
H         -4.86174       -0.06355       -2.87979
H         -5.72254       -1.31818       -1.95255
B          0.79756       -0.74254       -1.20942
O          0.31009       -1.93489       -1.73235
C          1.18161       -2.44535       -2.73262
C          1.20711       -3.96042       -2.63166
H          1.44777       -4.28077       -1.61007
H          0.21465       -4.36121       -2.88521
H          1.94094       -4.39657       -3.32719
C          0.62857       -2.01736       -4.08978
H          1.20994       -2.43260       -4.92640
H         -0.40796       -2.37191       -4.17626
H          0.61335       -0.92109       -4.17900
C          2.53925       -1.74887       -2.38768
O          2.08152       -0.52434       -1.80262
C          3.41819       -1.43112       -3.58344
H          2.91484       -0.75622       -4.28785
H          4.34549       -0.94251       -3.24639
H          3.70150       -2.35069       -4.11811
C          3.33437       -2.49219       -1.31925
H          2.70399       -2.68305       -0.43881
H          3.74650       -3.43917       -1.69770
H          4.17627       -1.86019       -0.99570
B          0.33314       -0.92909        1.39724
O         -0.21018       -0.97480        2.69081
C          0.42021       -2.01159        3.43882
C          1.54637       -1.37203        4.24634
H          2.29480       -0.92068        3.57864
H          1.12424       -0.57089        4.87132
H          2.04847       -2.09542        4.90599
C         -0.60194       -2.64688        4.36391
H         -0.91651       -1.91966        5.12782
H         -0.17988       -3.52237        4.88152
H         -1.49382       -2.95949        3.80600
C          0.94968       -2.94984        2.30581
O          1.19481       -2.02096        1.25281
C          2.23597       -3.68561        2.63561
H          2.10490       -4.33795        3.51302
H          2.52804       -4.31879        1.78442
H          3.05932       -2.98693        2.83381
C         -0.11158       -3.92587        1.80484
H         -1.03593       -3.38764        1.55047
H          0.25708       -4.39533        0.88099
H         -0.32786       -4.71780        2.53768
H         -3.57544        4.37912        3.24749
H         -1.85237        5.13716       -3.48868
C          2.19610        2.54280        1.47484
C          3.58413        2.78426        1.44035
N          1.84845        1.65685        0.55408
C          4.05076        1.95463        0.41885
H          4.16297        3.46106        2.06129
N          2.97781        1.30971       -0.07845
N          5.32066        1.72178       -0.04904
H          2.89068        0.58068       -0.81165
H          5.36681        1.43230       -1.01795
C          6.39046        2.57200        0.39601
H          7.33610        2.23129       -0.04695
H          6.49669        2.50212        1.48999
H          6.24773        3.64064        0.13968
