106
Int1_comp98_2_Sub23.log	Energy: -1414212.8045158
N         -0.64894        2.21398       -1.17234
C         -1.64519        2.90425       -0.58983
C         -1.89161        4.23806       -0.92872
C         -1.09864        4.85471       -1.88874
C         -0.07734        4.12361       -2.48906
C          0.11166        2.80449       -2.09504
H          0.90217        2.18559       -2.52339
H          0.57219        4.56421       -3.24687
H         -2.68747        4.79592       -0.43583
C         -2.42986        2.17548        0.43059
N         -1.94794        0.97489        0.79883
C         -2.58202        0.26695        1.73670
C         -3.75259        0.71631        2.34059
C         -4.28021        1.94262        1.94937
C         -3.60649        2.68435        0.98610
H         -4.00305        3.64524        0.65892
H         -4.24476        0.10212        3.09611
H         -2.10517       -0.68110        2.00366
Ir        -0.14262        0.23180       -0.29333
H         -0.64118       -0.95293       -2.88067
B          1.17237        1.12551        0.91103
O          1.55899        2.44643        0.69967
C          2.21865        2.91812        1.87303
C          3.31157        3.88990        1.46815
H          3.98888        3.43787        0.73232
H          3.89979        4.21340        2.34070
H          2.85977        4.78215        1.00962
C          1.16653        3.62734        2.72165
H          1.59787        4.09053        3.62131
H          0.69957        4.41584        2.11295
H          0.37744        2.92523        3.02935
C          2.72679        1.58715        2.52500
O          1.74431        0.64824        2.07980
C          4.07457        1.13808        1.97132
H          4.04159        1.10206        0.87434
H          4.89369        1.79341        2.30247
H          4.28067        0.11800        2.32586
C          2.75157        1.58886        4.04267
H          1.75030        1.75356        4.46119
H          3.11259        0.61519        4.40578
H          3.42979        2.36696        4.42572
B          0.29819       -1.43202        0.77843
O          1.24246       -2.42680        0.50591
C          1.44861       -3.21977        1.67458
C          1.76767       -4.64549        1.26051
H          1.00047       -5.05747        0.59204
H          2.72807       -4.66580        0.72436
H          1.85678       -5.30135        2.14020
C          2.62931       -2.61091        2.42407
H          2.89826       -3.19377        3.31747
H          3.49556       -2.58697        1.74663
H          2.40353       -1.57390        2.70771
C          0.08960       -3.04255        2.43417
O         -0.34976       -1.76593        1.97405
C          0.20922       -3.00331        3.94756
H          0.83228       -2.15984        4.27038
H         -0.78826       -2.87852        4.39515
H          0.64228       -3.93766        4.33681
C         -0.96092       -4.06671        2.01672
H         -1.04225       -4.11726        0.92252
H         -0.73502       -5.07224        2.40113
H         -1.93863       -3.75613        2.41450
B          1.52558       -0.29067       -1.31249
O          1.54595       -0.85189       -2.59863
C          2.87691       -1.28012       -2.89875
C          2.98900       -2.74646       -2.49316
H          2.77993       -2.86212       -1.42010
H          2.23654       -3.32512       -3.04824
H          3.98061       -3.16305       -2.72360
C          3.12427       -1.12430       -4.38804
H          2.47199       -1.81354       -4.94454
H          4.16822       -1.36410       -4.64253
H          2.90427       -0.10421       -4.72891
C          3.73275       -0.34102       -1.98536
O          2.84448       -0.08638       -0.90387
C          5.00662       -0.96640       -1.44398
H          5.67703       -1.27634       -2.26053
H          5.54318       -0.23532       -0.82124
H          4.78106       -1.83893       -0.81789
C          4.04905        1.00013       -2.64277
H          3.14160        1.45229       -3.06912
H          4.43581        1.68659       -1.87552
H          4.80059        0.90689       -3.44068
H         -1.27503        5.89759       -2.16090
H         -5.20890        2.31690        2.38510
C         -1.51330       -1.14009       -2.25065
C         -2.49657       -0.16932       -2.06605
C         -1.72002       -2.41899       -1.68970
N         -3.61217       -0.36029       -1.35421
H         -2.39000        0.80776       -2.54769
C         -0.72595       -3.51251       -1.90527
C         -2.88413       -2.60450       -0.95096
C         -3.79635       -1.55133       -0.79531
H         -0.41071       -3.55213       -2.95782
H         -1.13363       -4.49231       -1.61947
H          0.17402       -3.31161       -1.30298
H         -3.09773       -3.57479       -0.49415
C         -5.03351       -1.71525        0.07073
H         -4.68674       -1.80737        1.11712
H         -5.51779       -2.67952       -0.16066
N         -6.00051       -0.65479       -0.02568
H         -5.47823        0.22082       -0.03320
C         -6.80114       -0.71232       -1.22931
H         -7.48294        0.15152       -1.26194
H         -7.42924       -1.61860       -1.21816
H         -6.21600       -0.71633       -2.17142
