113
Int1_comp42_4_Sub19.log	Energy: -1453464.0534528
N         -0.32856        2.47318       -0.17850
C         -1.21946        2.99489        0.68124
C         -1.47084        4.37220        0.71281
C         -0.77048        5.20965       -0.14518
C          0.15599        4.65223       -1.02517
C          0.33538        3.27495       -1.01515
H          1.02825        2.77321       -1.69493
H          0.72959        5.27104       -1.71684
H         -2.20427        4.78699        1.40413
C         -1.85970        2.03378        1.60292
N         -1.56638        0.73425        1.39669
C         -2.02513       -0.19041        2.24994
C         -2.83864        0.13439        3.32900
C         -3.18493        1.46881        3.53237
C         -2.68015        2.42943        2.66506
H         -2.90672        3.48337        2.82540
H         -3.19278       -0.65401        3.99517
H         -1.70024       -1.21596        2.04359
Ir        -0.02045        0.29370       -0.14437
H         -0.35583        1.43358       -3.74066
B          1.34802        0.37310        1.31666
O          1.88296        1.58743        1.74718
C          2.50992        1.38313        3.01127
C          3.71442        2.29936        3.12289
H          4.38865        2.17015        2.26658
H          4.27645        2.10732        4.04998
H          3.38106        3.34777        3.13503
C          1.47860        1.73107        4.08259
H          1.89513        1.67300        5.09916
H          1.12600        2.75841        3.90810
H          0.60890        1.05990        4.01865
C          2.84490       -0.14634        2.97038
O          1.80408       -0.65231        2.13457
C          4.17279       -0.43992        2.28040
H          4.20162        0.03824        1.29250
H          5.03243       -0.11001        2.88236
H          4.25599       -1.52439        2.11919
C          2.78153       -0.85053        4.31386
H          1.77841       -0.78402        4.75459
H          3.02032       -1.91621        4.18119
H          3.51009       -0.42368        5.02053
B          0.16298       -1.71852        0.00313
O          0.85412       -2.58203       -0.85080
C          1.04046       -3.83095       -0.18990
C          1.09881       -4.94042       -1.22392
H          0.22523       -4.91939       -1.88855
H          1.99737       -4.81388       -1.84584
H          1.15496       -5.92912       -0.74266
C          2.36096       -3.74067        0.57057
H          2.61915       -4.68737        1.06829
H          3.15774       -3.48880       -0.14370
H          2.31714       -2.93005        1.31188
C         -0.19944       -3.88024        0.76417
O         -0.45076       -2.49502        1.00010
C          0.05009       -4.56643        2.09563
H          0.82661       -4.04153        2.66619
H         -0.87280       -4.56184        2.69531
H          0.35710       -5.61407        1.95239
C         -1.43651       -4.46499        0.09272
H         -1.62174       -3.97706       -0.87522
H         -1.34821       -5.54924       -0.06983
H         -2.30803       -4.28484        0.73944
B          1.63495        0.11466       -1.29307
O          1.72001        0.45885       -2.65093
C          2.96076       -0.02737       -3.16545
C          2.70199       -1.43426       -3.69770
H          2.34392       -2.08725       -2.88796
H          1.90997       -1.37932       -4.45925
H          3.59740       -1.87563       -4.16026
C          3.43152        0.88620       -4.28182
H          2.73253        0.82517       -5.12932
H          4.42862        0.58888       -4.64199
H          3.47525        1.93332       -3.95388
C          3.85876       -0.02737       -1.88662
O          2.90605       -0.27406       -0.85988
C          4.91951       -1.11334       -1.85112
H          5.62789       -1.00633       -2.68736
H          5.48674       -1.04554       -0.91093
H          4.46428       -2.11074       -1.89735
C          4.49151        1.33466       -1.61046
H          3.73331        2.13093       -1.63777
H          4.92652        1.32601       -0.60044
H          5.28855        1.57758       -2.32883
H         -0.94721        6.28738       -0.12796
H         -3.82487        1.76201        4.36735
C         -1.19557        1.22789       -3.08250
C         -2.21034        2.09297       -2.74948
C         -1.39225        0.01228       -2.35131
N         -3.02374        1.43254       -1.85470
C         -2.48128        3.49633       -3.15835
C         -2.55971        0.16990       -1.59885
H         -0.85843       -0.92295       -2.50678
H         -3.83058        1.83980       -1.40433
H         -3.46980        3.60408       -3.63648
H         -1.72403        3.82603       -3.88163
H         -2.44671        4.19212       -2.30291
C         -3.38175       -0.84006       -0.85296
H         -2.70549       -1.36417       -0.15570
C         -3.95943       -1.89552       -1.81063
H         -3.13642       -2.37668       -2.36165
H         -4.58031       -1.38218       -2.56728
C         -4.79257       -2.93958       -1.07538
H         -5.22490       -3.65263       -1.79600
H         -4.12921       -3.52716       -0.41863
C         -5.89009       -2.30298       -0.23089
H         -6.43980       -3.07526        0.33142
H         -6.62838       -1.81752       -0.89519
C         -5.31533       -1.25880        0.71902
H         -4.65404       -1.75280        1.45315
H         -6.11903       -0.77682        1.29922
C         -4.51323       -0.20845       -0.03860
H         -5.20059        0.32008       -0.72707
H         -4.11557        0.54549        0.65860
