115
Int1_comp34_0_Sub19.log	Energy: -1560885.5016741
N         -0.98889        0.47803        1.53116
C         -1.71583       -0.47678        2.13563
C         -2.65522       -0.15241        3.11964
C         -2.85153        1.18039        3.45858
C         -2.10243        2.15783        2.80947
C         -1.17716        1.75734        1.85347
H         -0.56476        2.47745        1.30743
H         -2.22593        3.21751        3.03743
H         -3.22417       -0.93457        3.62171
C         -1.45111       -1.86531        1.70090
N         -0.44738       -2.02553        0.81911
C         -0.11613       -3.25208        0.40705
C         -0.79219       -4.38718        0.84248
C         -1.85490       -4.23525        1.72874
C         -2.18636       -2.95938        2.16615
H         -3.01865       -2.81588        2.85406
H         -0.48683       -5.37083        0.48188
H          0.72917       -3.29562       -0.28697
Ir         0.52225       -0.17552        0.04208
H         -1.24245        1.43262       -1.57955
B          2.00327       -0.03250        1.37559
O          1.85020        0.67674        2.56491
C          2.93428        0.34982        3.43164
C          3.29942        1.57504        4.24970
H          3.49514        2.43845        3.60099
H          4.18895        1.38855        4.87103
H          2.46407        1.83527        4.91676
C          2.45207       -0.77225        4.34739
H          3.20267       -1.04643        5.10340
H          1.54193       -0.43489        4.86496
H          2.19603       -1.66800        3.76242
C          4.03759       -0.12302        2.42308
O          3.25349       -0.63325        1.34318
C          4.87400        1.03060        1.87992
H          4.22227        1.80994        1.46374
H          5.53174        1.45998        2.65006
H          5.50091        0.65689        1.05755
C          4.94053       -1.22951        2.93849
H          4.36815       -2.13157        3.19014
H          5.66923       -1.50011        2.16008
H          5.49926       -0.90224        3.82903
B          1.91996       -0.95515       -1.20208
O          2.59247       -0.31636       -2.24802
C          3.69354       -1.13025       -2.64761
C          3.98416       -0.89537       -4.11827
H          3.08540       -1.02992       -4.73439
H          4.33949        0.13572       -4.26281
H          4.76780       -1.57847       -4.48093
C          4.88778       -0.71615       -1.79234
H          5.80722       -1.25003       -2.07539
H          5.05168        0.36323       -1.92277
H          4.66989       -0.88943       -0.72868
C          3.17381       -2.56190       -2.29488
O          2.31815       -2.29843       -1.18390
C          4.24929       -3.54381       -1.86689
H          4.75865       -3.19512       -0.95973
H          3.79441       -4.52088       -1.64455
H          4.99550       -3.68869       -2.66348
C          2.31704       -3.16389       -3.40485
H          1.55710       -2.44497       -3.74424
H          2.91897       -3.47138       -4.27271
H          1.79846       -4.05212       -3.01370
B          1.31560        1.57747       -0.57518
O          0.59448        2.52671       -1.31995
C          1.51082        3.49670       -1.83277
C          1.95934        3.00679       -3.20649
H          2.44922        2.02581       -3.11932
H          1.06951        2.88382       -3.84179
H          2.63923        3.71790       -3.69889
C          0.80738        4.83612       -1.94714
H          0.01372        4.77344       -2.70638
H          1.51018        5.62608       -2.25408
H          0.34255        5.12894       -0.99653
C          2.65873        3.44079       -0.77175
O          2.58749        2.09120       -0.32699
C          4.04829        3.70644       -1.32380
H          4.11603        4.71269       -1.76567
H          4.78815        3.63845       -0.51248
H          4.31679        2.96448       -2.08640
C          2.39366        4.33643        0.43592
H          1.38579        4.16175        0.84002
H          3.11609        4.08738        1.22683
H          2.49741        5.40456        0.19402
H         -3.58130        1.45175        4.22467
H         -2.42118       -5.10090        2.07940
C         -1.57263        0.39245       -1.56744
C         -2.72830       -0.01875       -0.91589
C         -0.89222       -0.59890       -2.31131
O         -3.55086        0.71438       -0.11856
C         -3.18261       -1.32871       -0.95889
C         -1.37129       -1.91548       -2.37536
H         -0.02373       -0.30310       -2.90154
C         -4.67199       -0.11518        0.16711
O         -4.29526       -1.44475       -0.17906
C         -2.52752       -2.30550       -1.69186
H         -0.82418       -2.65287       -2.96536
C         -5.89152        0.33433       -0.61550
H         -4.85863       -0.07874        1.25450
H         -2.89954       -3.33043       -1.72168
H         -5.61383        0.26920       -1.68480
C         -6.24332        1.78488       -0.29080
H         -5.38198        2.43325       -0.51074
H         -6.43152        1.86983        0.79653
C         -7.48128        2.24301       -1.05304
H         -7.73488        3.27872       -0.77554
H         -7.25250        2.25960       -2.13381
C         -8.66787        1.31765       -0.80536
H         -9.53910        1.64229       -1.39685
H         -8.96884        1.39091        0.25583
C         -8.31707       -0.13146       -1.12590
H         -8.12779       -0.22826       -2.21012
H         -9.16843       -0.79374       -0.90077
C         -7.07981       -0.59112       -0.36310
H         -7.30149       -0.59757        0.72121
H         -6.81032       -1.62307       -0.63408
