23

C      -0.427460000000000      0.300620000000000     -0.314000000000000
C       0.566070000000000     -0.560570000000000      0.204020000000000
C       0.206750000000000      1.400810000000000     -0.912140000000000
C       1.841220000000000     -0.020020000000000     -0.056060000000000
H       0.332420000000000     -1.517180000000000      0.656000000000000
C       1.603960000000000      1.239350000000000     -0.799670000000000
H      -0.272550000000000      2.234930000000000     -1.425840000000000
C       3.089220000000000     -0.600050000000000      0.311300000000000
C       2.506750000000000      2.134680000000000     -1.374780000000000
C       4.352510000000000     -0.107180000000000     -0.174390000000000
N       3.159230000000000     -1.675300000000000      1.129330000000000
C       3.884510000000000      2.041410000000000     -1.436680000000000
H       2.051060000000000      3.000560000000000     -1.866300000000000
C       4.678330000000000      1.017200000000000     -0.911660000000000
Cl      5.771440000000000     -1.061170000000000      0.276740000000000
H       4.420660000000000      2.835740000000000     -1.960650000000000
H       5.751140000000000      1.121320000000000     -1.092840000000000
He     -2.320260000000000     -0.122040000000000     -0.252850000000000
H       4.096490000000000     -2.044120000000000      1.234780000000000
C       2.176450000000000     -2.234680000000000      2.017690000000000
H       1.502980000000000     -2.953190000000000      1.522370000000000
H       1.563460000000000     -1.450670000000000      2.483100000000000
H       2.710040000000000     -2.771690000000000      2.814190000000000
