18

C       0.195900000000000     -0.087230000000000     -0.081340000000000
C      -0.607500000000000      0.903510000000000     -0.646320000000000
C      -0.497850000000000     -1.170860000000000      0.462480000000000
C      -2.016760000000000      0.869250000000000     -0.680190000000000
O      -0.158410000000000      2.045950000000000     -1.226600000000000
C      -1.900830000000000     -1.236620000000000      0.449420000000000
H       0.051970000000000     -2.010690000000000      0.891060000000000
C      -2.691360000000000     -0.231050000000000     -0.115020000000000
C      -2.406440000000000      2.090030000000000     -1.342770000000000
C      -1.249510000000000      2.734200000000000     -1.637090000000000
Cl     -2.624290000000000     -2.638420000000000      1.167240000000000
C      -4.195900000000000     -0.325660000000000     -0.111220000000000
H      -3.410630000000000      2.432240000000000     -1.568770000000000
H      -1.049980000000000      3.678480000000000     -2.138390000000000
He      2.159040000000000     -0.118510000000000     -0.101700000000000
F      -4.756520000000000      0.740040000000000     -0.697170000000000
F      -4.687040000000000     -0.387160000000000      1.128250000000000
F      -4.630590000000000     -1.401500000000000     -0.768460000000000
