33

C      -0.639670000000000     -0.431260000000000     -0.072320000000000
C      -0.870000000000000     -1.649920000000000     -0.745600000000000
C       0.560530000000000     -0.319990000000000      0.623400000000000
C       0.079990000000000     -2.676370000000000     -0.683020000000000
C      -1.891710000000000     -2.230260000000000     -1.565530000000000
C       1.519780000000000     -1.365640000000000      0.674900000000000
H       0.790250000000000      0.617930000000000      1.137390000000000
C       1.280630000000000     -2.569090000000000      0.018010000000000
O      -0.355630000000000     -3.734260000000000     -1.386490000000000
H      -2.831360000000000     -1.791850000000000     -1.901290000000000
N      -1.584000000000000     -3.440900000000000     -1.930450000000000
C       2.811540000000000     -1.131240000000000      1.407750000000000
H       1.998970000000000     -3.389870000000000      0.041280000000000
He     -1.910830000000000      1.049340000000000     -0.100880000000000
H       3.341060000000000     -2.089110000000000      1.542240000000000
H       2.592260000000000     -0.748310000000000      2.419000000000000
C       3.743420000000000     -0.138750000000000      0.701890000000000
H       3.191080000000000      0.813070000000000      0.580470000000000
C       4.148620000000000     -0.613410000000000     -0.692950000000000
H       3.251290000000000     -0.776090000000000     -1.311120000000000
H       4.645670000000000     -1.598050000000000     -0.600870000000000
C       5.092870000000000      0.368350000000000     -1.377620000000000
H       5.390790000000000     -0.018120000000000     -2.365690000000000
H       4.553260000000000      1.314120000000000     -1.565790000000000
C       6.322570000000000      0.653960000000000     -0.522770000000000
H       6.971780000000000      1.395950000000000     -1.015390000000000
H       6.922040000000000     -0.270120000000000     -0.429840000000000
C       5.926360000000000      1.134070000000000      0.869120000000000
H       5.425930000000000      2.115740000000000      0.784890000000000
H       6.821270000000000      1.295590000000000      1.491830000000000
C       4.981270000000000      0.150560000000000      1.550460000000000
H       5.514340000000000     -0.800930000000000      1.735770000000000
H       4.677070000000000      0.531710000000000      2.539970000000000
