19

C       0.053850000000000      0.370530000000000     -0.025980000000000
C       1.239810000000000     -0.319060000000000     -0.324000000000000
C       0.226890000000000      1.705950000000000      0.340010000000000
C       2.515940000000000      0.253500000000000     -0.238190000000000
O       1.351350000000000     -1.607740000000000     -0.689930000000000
C       1.502800000000000      2.296920000000000      0.419920000000000
H      -0.648920000000000      2.322350000000000      0.553590000000000
C       2.664590000000000      1.595440000000000      0.138470000000000
C       3.385560000000000     -0.850160000000000     -0.587480000000000
N       2.687000000000000     -1.929360000000000     -0.850410000000000
Cl      1.617080000000000      3.965790000000000      0.888500000000000
H       3.632560000000000      2.086580000000000      0.217080000000000
N       4.744580000000000     -0.877860000000000     -0.636100000000000
He     -1.787740000000000     -0.316550000000000     -0.154650000000000
H       5.123750000000000     -1.732990000000000     -1.020820000000000
C       5.566170000000000      0.300260000000000     -0.684280000000000
H       6.610280000000000     -0.005260000000000     -0.830230000000000
H       5.527170000000000      0.861500000000000      0.263210000000000
H       5.298370000000000      0.989420000000000     -1.506090000000000
