18

C      -0.338740000000000     -0.372010000000000     -0.300380000000000
C      -1.634190000000000      0.164210000000000      0.081490000000000
C      -0.661020000000000     -1.495290000000000     -1.011610000000000
C      -2.598490000000000     -0.716880000000000     -0.431770000000000
C      -2.071490000000000      1.287480000000000      0.796520000000000
Cl      0.331980000000000     -2.644780000000000     -1.783310000000000
O      -1.993270000000000     -1.735060000000000     -1.101590000000000
C      -3.966840000000000     -0.550640000000000     -0.264320000000000
C      -3.435870000000000      1.468810000000000      0.970670000000000
H      -1.347520000000000      2.006180000000000      1.184130000000000
C      -4.393800000000000      0.567040000000000      0.454320000000000
H      -4.674630000000000     -1.268300000000000     -0.683510000000000
H      -3.790030000000000      2.343710000000000      1.522850000000000
C      -5.856720000000000      0.822640000000000      0.678230000000000
He      1.390490000000000      0.515750000000000     -0.035510000000000
H      -6.162350000000000      1.789160000000000      0.246470000000000
H      -6.094950000000000      0.860590000000000      1.753300000000000
H      -6.478620000000000      0.039410000000000      0.223070000000000
