17

C       0.330830000000000     -0.468290000000000     -0.135520000000000
C       1.415130000000000      0.098470000000000      0.535690000000000
C       0.535950000000000     -1.556240000000000     -1.022380000000000
C       2.692350000000000     -0.429060000000000      0.295620000000000
H       1.277970000000000      0.926530000000000      1.236210000000000
C       1.797420000000000     -2.080570000000000     -1.277640000000000
H      -0.335180000000000     -2.009260000000000     -1.502370000000000
C       2.861720000000000     -1.489160000000000     -0.598260000000000
C       4.034970000000000     -0.171680000000000      0.745920000000000
H       1.949870000000000     -2.916960000000000     -1.961330000000000
O       4.162390000000000     -1.813970000000000     -0.667630000000000
C       4.501220000000000      0.848800000000000      1.720170000000000
N       4.873760000000000     -0.988600000000000      0.171530000000000
He     -1.512020000000000      0.114290000000000      0.190790000000000
H       4.243000000000000      1.862940000000000      1.377990000000000
H       5.589810000000000      0.782890000000000      1.841990000000000
H       4.023800000000000      0.698240000000000      2.700650000000000
