18

C      -0.357200000000000     -0.169660000000000     -0.094710000000000
C      -1.241770000000000      0.724820000000000     -0.701920000000000
C      -0.959540000000000     -1.302550000000000      0.459800000000000
C      -2.636770000000000      0.543270000000000     -0.758880000000000
O      -0.904950000000000      1.898800000000000     -1.299370000000000
C      -2.351200000000000     -1.495070000000000      0.411900000000000
H      -0.343360000000000     -2.075960000000000      0.922290000000000
C      -3.234910000000000     -0.597260000000000     -0.190480000000000
C      -3.141920000000000      1.701360000000000     -1.453550000000000
C      -2.055890000000000      2.461360000000000     -1.743250000000000
Cl     -2.993950000000000     -2.939380000000000      1.141200000000000
C      -4.711130000000000     -0.832280000000000     -0.228130000000000
H      -4.173510000000000      1.934790000000000     -1.705670000000000
H      -1.945650000000000      3.411750000000000     -2.260220000000000
He      1.599790000000000     -0.002150000000000     -0.084480000000000
H      -4.946460000000000     -1.769570000000000     -0.756430000000000
H      -5.236890000000000     -0.010660000000000     -0.731100000000000
H      -5.120030000000000     -0.936450000000000      0.789040000000000
