18

C       0.566890000000000      0.104080000000000     -0.107460000000000
C       1.171450000000000     -0.781400000000000     -1.015200000000000
C       1.433780000000000      1.081020000000000      0.416650000000000
C       2.511790000000000     -0.764140000000000     -1.402410000000000
O       0.554420000000000     -1.818080000000000     -1.616190000000000
C       2.816680000000000      1.112070000000000      0.024410000000000
O       1.121660000000000      2.019590000000000      1.312950000000000
C       3.360830000000000      0.218910000000000     -0.873650000000000
C       2.601480000000000     -1.882360000000000     -2.288620000000000
N       1.457960000000000     -2.492660000000000     -2.403860000000000
Cl      3.828840000000000      2.331260000000000      0.717560000000000
H       4.416750000000000      0.287100000000000     -1.136340000000000
H       3.463290000000000     -2.260210000000000     -2.839160000000000
He     -1.411320000000000     -0.033860000000000      0.023760000000000
C      -0.166650000000000      2.153220000000000      1.856730000000000
H      -0.895760000000000      2.464520000000000      1.094410000000000
H      -0.509230000000000      1.215370000000000      2.327680000000000
H      -0.084020000000000      2.928970000000000      2.628950000000000
