18

C      -0.006110000000000      0.468940000000000     -0.022480000000000
C       1.279780000000000     -0.025630000000000     -0.286730000000000
C      -0.048390000000000      1.825850000000000      0.306900000000000
C       2.434590000000000      0.756700000000000     -0.205740000000000
O       1.622990000000000     -1.291520000000000     -0.618270000000000
C       1.113360000000000      2.621890000000000      0.382760000000000
H      -1.014460000000000      2.299320000000000      0.495020000000000
C       2.377560000000000      2.111640000000000      0.131240000000000
C       3.473020000000000     -0.185840000000000     -0.518020000000000
N       2.994690000000000     -1.376750000000000     -0.750390000000000
Cl      0.941240000000000      4.296210000000000      0.806130000000000
H       3.270870000000000      2.732430000000000      0.196430000000000
O       4.760620000000000      0.110560000000000     -0.561340000000000
He     -1.714110000000000     -0.502470000000000     -0.154660000000000
C       5.638310000000000     -0.949410000000000     -0.891930000000000
H       5.564980000000000     -1.762440000000000     -0.152860000000000
H       5.397460000000000     -1.360410000000000     -1.884590000000000
H       6.649230000000000     -0.525910000000000     -0.890560000000000
