18

C       0.283440000000000      0.369650000000000     -0.026810000000000
C       1.394390000000000     -0.312860000000000     -0.529880000000000
C       0.548300000000000      1.638350000000000      0.501560000000000
C       2.704270000000000      0.199620000000000     -0.511980000000000
O       1.396890000000000     -1.555330000000000     -1.078570000000000
C       1.853050000000000      2.163640000000000      0.528100000000000
H      -0.272070000000000      2.251210000000000      0.879940000000000
C       2.946530000000000      1.468340000000000      0.028420000000000
C       3.539090000000000     -0.819630000000000     -1.106880000000000
C       2.684450000000000     -1.831320000000000     -1.416200000000000
Cl      2.096200000000000      3.744180000000000      1.208340000000000
H       3.946250000000000      1.903140000000000      0.062970000000000
C       5.009630000000000     -0.753760000000000     -1.326440000000000
H       2.850640000000000     -2.799060000000000     -1.884790000000000
He     -1.572500000000000     -0.266410000000000     -0.115940000000000
H       5.275450000000000      0.093570000000000     -1.978610000000000
H       5.387790000000000     -1.672620000000000     -1.795710000000000
H       5.547810000000000     -0.612160000000000     -0.375440000000000
