15

C       0.182910000000000      0.792450000000000     -0.770220000000000
C      -0.056520000000000      1.423980000000000     -2.002590000000000
C       1.424690000000000      0.997170000000000     -0.142440000000000
C       0.920390000000000      2.215260000000000     -2.604690000000000
H      -1.029540000000000      1.304470000000000     -2.486440000000000
C       2.396810000000000      1.802540000000000     -0.748470000000000
C       1.714910000000000      0.359730000000000      1.183390000000000
C       2.152390000000000      2.403180000000000     -1.976550000000000
H       0.714200000000000      2.694350000000000     -3.565100000000000
H       3.350720000000000      1.954990000000000     -0.237080000000000
H       2.919390000000000      3.026060000000000     -2.441920000000000
He     -1.262420000000000     -0.299580000000000     -0.016030000000000
Cl      3.052700000000000     -0.840400000000000      1.041800000000000
Cl      2.128540000000000      1.565990000000000      2.424670000000000
H       0.849670000000000     -0.196830000000000      1.559060000000000
