20

C      -0.471570000000000     -0.508440000000000     -0.305320000000000
C      -0.686050000000000     -1.508970000000000     -1.408440000000000
C      -1.654800000000000     -0.342080000000000      0.349510000000000
H      -0.399400000000000     -1.113110000000000     -2.399990000000000
H      -0.026920000000000     -2.380810000000000     -1.241830000000000
C      -2.138570000000000     -1.846320000000000     -1.309200000000000
H      -1.815180000000000      0.279520000000000      1.234500000000000
C      -2.699240000000000     -1.166020000000000     -0.282320000000000
H      -2.659300000000000     -2.533250000000000     -1.979090000000000
C      -4.130830000000000     -1.196670000000000      0.170300000000000
He      1.299200000000000      0.149420000000000      0.125130000000000
H      -4.662270000000000     -1.902790000000000     -0.490760000000000
C      -4.250480000000000     -1.711380000000000      1.604830000000000
H      -5.305860000000000     -1.774210000000000      1.913360000000000
H      -3.801660000000000     -2.710420000000000      1.707450000000000
H      -3.737210000000000     -1.040760000000000      2.312860000000000
C      -4.783300000000000      0.177690000000000      0.015650000000000
H      -4.729250000000000      0.528880000000000     -1.025720000000000
H      -5.843000000000000      0.147970000000000      0.314240000000000
H      -4.281440000000000      0.928760000000000      0.647410000000000
