20

C       0.858870000000000     -0.345630000000000     -0.788610000000000
C       1.271000000000000     -1.717920000000000     -0.291960000000000
C       1.665930000000000     -0.000710000000000     -1.831640000000000
C       1.586100000000000     -1.857500000000000      1.215510000000000
H       0.418200000000000     -2.391450000000000     -0.518370000000000
C       2.423690000000000     -2.064760000000000     -1.192530000000000
H       1.581780000000000      0.905950000000000     -2.436130000000000
C       2.641680000000000     -1.063150000000000     -2.069210000000000
H       2.997150000000000     -2.989370000000000     -1.123110000000000
H       3.411140000000000     -1.037060000000000     -2.843230000000000
He     -0.800000000000000      0.516690000000000     -0.258820000000000
H       2.435910000000000     -1.182480000000000      1.430140000000000
C       0.414770000000000     -1.448920000000000      2.101020000000000
H       0.659820000000000     -1.609090000000000      3.162520000000000
H       0.149580000000000     -0.388350000000000      1.972200000000000
H      -0.484690000000000     -2.037530000000000      1.861180000000000
C       2.018810000000000     -3.281210000000000      1.554920000000000
H       2.924090000000000     -3.588060000000000      1.012360000000000
H       2.231970000000000     -3.374420000000000      2.630810000000000
H       1.218140000000000     -3.999300000000000      1.312000000000000
