12

C      -0.407650000000000     -0.013850000000000      0.281940000000000
C      -1.383100000000000     -0.760470000000000     -0.329470000000000
O      -1.005680000000000      0.870760000000000      1.139980000000000
C      -2.632310000000000     -0.299570000000000      0.196170000000000
H      -1.220050000000000     -1.557620000000000     -1.050730000000000
C      -2.335910000000000      0.690080000000000      1.084890000000000
C      -3.990030000000000     -0.791220000000000     -0.154820000000000
H      -2.952310000000000      1.321070000000000      1.719390000000000
He      1.527990000000000     -0.057180000000000      0.152410000000000
F      -4.250560000000000     -0.633640000000000     -1.458320000000000
F      -4.936230000000000     -0.134830000000000      0.526030000000000
F      -4.132130000000000     -2.093520000000000      0.110580000000000
