18

C       0.569480000000000     -0.150660000000000     -0.411090000000000
C       1.564660000000000     -0.789890000000000      0.289600000000000
O       1.129860000000000      0.514990000000000     -1.458460000000000
C       2.806670000000000     -0.504030000000000     -0.379960000000000
H       1.412470000000000     -1.412870000000000      1.169010000000000
C       2.465740000000000      0.291490000000000     -1.433250000000000
C       4.178120000000000     -0.978130000000000      0.003480000000000
H       3.049230000000000      0.757010000000000     -2.224140000000000
He     -1.338990000000000      0.012980000000000     -0.120850000000000
H       4.883680000000000     -0.557210000000000     -0.734150000000000
C       4.576230000000000     -0.457310000000000      1.384340000000000
H       5.599940000000000     -0.769340000000000      1.644180000000000
H       4.530030000000000      0.641270000000000      1.424360000000000
H       3.900850000000000     -0.849250000000000      2.161930000000000
C       4.277300000000000     -2.501690000000000     -0.066760000000000
H       4.019030000000000     -2.871350000000000     -1.069970000000000
H       5.296240000000000     -2.842040000000000      0.175860000000000
H       3.586670000000000     -2.974330000000000      0.649950000000000
