12

C      -1.114780000000000     -0.355590000000000     -0.238800000000000
C      -2.312580000000000      0.114720000000000     -0.760250000000000
N      -1.444370000000000     -1.595090000000000      0.267280000000000
H      -2.490370000000000      1.053020000000000     -1.285810000000000
N      -3.317260000000000     -0.794490000000000     -0.570280000000000
C      -2.767560000000000     -1.820190000000000      0.042260000000000
H      -0.761570000000000     -2.235380000000000      0.656830000000000
C      -3.471090000000000     -3.062360000000000      0.455970000000000
He      0.752660000000000      0.176880000000000     -0.202870000000000
H      -3.006610000000000     -3.959740000000000      0.016920000000000
H      -4.510350000000000     -3.001980000000000      0.111030000000000
H      -3.473560000000000     -3.187550000000000      1.550890000000000
