16

C       0.130130000000000     -0.322750000000000      0.052640000000000
C       0.620690000000000     -1.359010000000000      0.844410000000000
C       1.240610000000000      0.287870000000000     -0.589620000000000
H       0.094790000000000     -2.086560000000000      1.458130000000000
N       1.982370000000000     -1.407390000000000      0.705090000000000
C       2.382300000000000     -0.392050000000000     -0.179530000000000
H       1.232190000000000      1.120150000000000     -1.289250000000000
C       2.884820000000000     -2.261170000000000      1.284380000000000
C       3.770500000000000     -0.273450000000000     -0.448590000000000
C       4.213670000000000     -2.135020000000000      1.011370000000000
H       2.470100000000000     -3.017900000000000      1.950840000000000
C       4.679610000000000     -1.120580000000000      0.127750000000000
Cl      4.267650000000000      0.978590000000000     -1.528070000000000
H       4.919850000000000     -2.822600000000000      1.477830000000000
H       5.741970000000000     -1.013570000000000     -0.092430000000000
He     -1.762680000000000      0.088140000000000     -0.170090000000000
