19

C      -0.657560000000000      0.268870000000000     -0.323110000000000
C      -1.404510000000000      1.069540000000000     -1.200050000000000
N      -1.562460000000000     -0.604710000000000      0.252000000000000
C      -2.766800000000000      0.719480000000000     -1.139200000000000
H      -0.981250000000000      1.851770000000000     -1.831010000000000
C      -2.856140000000000     -0.334440000000000     -0.222650000000000
C      -1.332480000000000     -1.611180000000000      1.151850000000000
C      -3.905480000000000      1.344720000000000     -1.874030000000000
C      -3.934450000000000     -1.094340000000000      0.287210000000000
C      -2.371130000000000     -2.353140000000000      1.631200000000000
H      -0.288860000000000     -1.773640000000000      1.419570000000000
C      -3.703090000000000     -2.089840000000000      1.201040000000000
H      -4.942060000000000     -0.868850000000000     -0.067360000000000
H      -2.161850000000000     -3.152180000000000      2.343360000000000
H      -4.530030000000000     -2.682820000000000      1.596160000000000
He      1.285380000000000      0.037220000000000     -0.203060000000000
H      -4.615870000000000      1.844910000000000     -1.194160000000000
H      -4.479040000000000      0.601620000000000     -2.452090000000000
H      -3.542040000000000      2.101620000000000     -2.583470000000000
