22

C       0.242900000000000     -0.447240000000000     -0.104690000000000
C       1.230420000000000      0.192490000000000      0.716010000000000
C       0.647950000000000     -1.436130000000000     -0.979610000000000
C       2.604970000000000     -0.180710000000000      0.591670000000000
C       0.899280000000000      1.196060000000000      1.663660000000000
C       2.006010000000000     -1.818760000000000     -1.108530000000000
H      -0.095910000000000     -1.957350000000000     -1.588620000000000
C       2.972450000000000     -1.202180000000000     -0.342260000000000
C       3.581630000000000      0.459020000000000      1.391660000000000
C       1.867500000000000      1.804300000000000      2.431020000000000
H      -0.151000000000000      1.470640000000000      1.782310000000000
H       2.266550000000000     -2.604360000000000     -1.817840000000000
O       4.288170000000000     -1.487930000000000     -0.395060000000000
H       4.623020000000000      0.155990000000000      1.277160000000000
C       3.221990000000000      1.436020000000000      2.292340000000000
H       1.583370000000000      2.569310000000000      3.157720000000000
H       3.984560000000000      1.921650000000000      2.905830000000000
He     -1.663800000000000      0.011410000000000     -0.018630000000000
C       4.725530000000000     -2.486010000000000     -1.272840000000000
H       4.272820000000000     -3.464880000000000     -1.035900000000000
H       4.496370000000000     -2.234970000000000     -2.323630000000000
H       5.813860000000000     -2.557670000000000     -1.152620000000000
