24

C       0.379310000000000      0.543340000000000      0.070900000000000
C       1.657020000000000      0.350430000000000     -0.568800000000000
C       0.374500000000000      1.862570000000000      0.507430000000000
C       2.377920000000000      1.577460000000000     -0.474030000000000
C       2.343300000000000     -0.691480000000000     -1.199340000000000
C      -0.727470000000000      2.628780000000000      1.171420000000000
N       1.569050000000000      2.465410000000000      0.180280000000000
N       3.600320000000000      1.829680000000000     -0.910900000000000
C       3.627190000000000     -0.459290000000000     -1.681240000000000
Cl      1.617050000000000     -2.252510000000000     -1.375200000000000
H       1.844760000000000      3.412030000000000      0.404670000000000
C       4.203400000000000      0.809720000000000     -1.511890000000000
H       4.177530000000000     -1.255640000000000     -2.183140000000000
H       5.215130000000000      0.991310000000000     -1.889820000000000
He     -1.210200000000000     -0.615970000000000      0.011630000000000
H      -1.469710000000000      1.869570000000000      1.466610000000000
C      -0.251440000000000      3.358140000000000      2.426600000000000
H      -1.097850000000000      3.845230000000000      2.933590000000000
H       0.223410000000000      2.667620000000000      3.139960000000000
H       0.477500000000000      4.150660000000000      2.187640000000000
C      -1.403910000000000      3.573510000000000      0.174720000000000
H      -1.798930000000000      3.003980000000000     -0.677880000000000
H      -2.236900000000000      4.108840000000000      0.656570000000000
H      -0.695450000000000      4.328010000000000     -0.204300000000000
