19

C       0.137340000000000     -0.578930000000000      0.997190000000000
C      -1.245670000000000     -0.629950000000000      0.589280000000000
C       0.192700000000000     -1.332170000000000      2.158290000000000
C      -1.954890000000000     -1.410590000000000      1.548620000000000
C      -2.021310000000000     -0.108050000000000     -0.453330000000000
H       1.060750000000000     -1.575220000000000      2.768710000000000
N      -1.046560000000000     -1.821200000000000      2.485890000000000
N      -3.249510000000000     -1.684600000000000      1.560170000000000
C      -3.390310000000000     -0.386660000000000     -0.477080000000000
Cl     -1.327630000000000      0.885160000000000     -1.683650000000000
H      -1.284170000000000     -2.382100000000000      3.292620000000000
C      -3.942200000000000     -1.177170000000000      0.551830000000000
O      -4.208400000000000      0.112010000000000     -1.436980000000000
H      -5.020110000000000     -1.369200000000000      0.517710000000000
He      1.705260000000000      0.098200000000000      0.022040000000000
C      -4.223210000000000     -0.610310000000000     -2.648960000000000
H      -3.228670000000000     -0.624730000000000     -3.125790000000000
H      -4.559990000000000     -1.650010000000000     -2.491030000000000
H      -4.930720000000000     -0.101840000000000     -3.317110000000000
