14

C       0.992010000000000     -0.287510000000000     -0.302580000000000
C       1.481210000000000     -1.402730000000000      0.383170000000000
C       1.898970000000000      0.430470000000000     -1.099380000000000
C       2.832380000000000     -1.753600000000000      0.279830000000000
H       0.799610000000000     -2.014010000000000      0.983190000000000
N       3.183640000000000      0.106630000000000     -1.213890000000000
H       1.565470000000000      1.301780000000000     -1.675930000000000
C       3.630850000000000     -0.948090000000000     -0.540260000000000
C       3.392830000000000     -2.942250000000000      1.000680000000000
H       4.696330000000000     -1.184740000000000     -0.656380000000000
He     -0.914510000000000      0.141680000000000     -0.197960000000000
H       3.264090000000000     -2.846610000000000      2.090350000000000
H       4.465980000000000     -3.064900000000000      0.796660000000000
H       2.881650000000000     -3.868540000000000      0.694440000000000
