16

C      -0.828500000000000     -0.503590000000000     -0.226200000000000
C      -1.648720000000000     -0.217730000000000     -1.345610000000000
C      -1.380410000000000     -1.328170000000000      0.742540000000000
N      -2.891590000000000     -0.690160000000000     -1.434310000000000
C      -1.172180000000000      0.597180000000000     -2.506900000000000
C      -2.700530000000000     -1.787560000000000      0.571680000000000
H      -0.807010000000000     -1.632150000000000      1.623420000000000
N      -3.414530000000000     -1.446090000000000     -0.496330000000000
C      -3.361380000000000     -2.680800000000000      1.573790000000000
He      0.996340000000000      0.165750000000000     -0.037190000000000
H      -3.350910000000000     -2.233560000000000      2.579740000000000
H      -2.841000000000000     -3.649430000000000      1.639200000000000
H      -4.400220000000000     -2.857740000000000      1.268600000000000
H      -1.986400000000000      0.694630000000000     -3.235990000000000
H      -0.310540000000000      0.110180000000000     -2.990350000000000
H      -0.835340000000000      1.597590000000000     -2.195680000000000
