13

C      -0.796590000000000     -0.898550000000000      0.079660000000000
C      -1.746850000000000     -1.038210000000000     -0.961130000000000
C      -1.019690000000000     -1.667480000000000      1.215980000000000
N      -2.815370000000000     -1.831390000000000     -0.839800000000000
C      -1.604690000000000     -0.339680000000000     -2.277000000000000
C      -2.167770000000000     -2.468070000000000      1.251410000000000
H      -0.323240000000000     -1.662160000000000      2.058900000000000
N      -3.034740000000000     -2.527270000000000      0.252050000000000
H      -2.401760000000000     -3.087470000000000      2.123340000000000
He      0.782790000000000      0.243850000000000     -0.050880000000000
H      -2.469220000000000     -0.581430000000000     -2.907830000000000
H      -0.683800000000000     -0.665930000000000     -2.785720000000000
H      -1.528760000000000      0.751390000000000     -2.156940000000000
