25

C       0.365390000000000     -0.727930000000000     -0.725210000000000
C      -0.966570000000000     -0.469650000000000     -0.395580000000000
C       0.681900000000000     -1.865830000000000     -1.485710000000000
C      -2.000540000000000     -1.337740000000000     -0.792760000000000
H      -1.205050000000000      0.440440000000000      0.159900000000000
C      -0.335050000000000     -2.725360000000000     -1.897370000000000
H       1.718700000000000     -2.075910000000000     -1.761780000000000
C      -3.409250000000000     -1.102220000000000     -0.457880000000000
C      -1.658600000000000     -2.468810000000000     -1.549020000000000
H      -0.092060000000000     -3.606290000000000     -2.497540000000000
C      -3.916340000000000     -0.081450000000000      0.247640000000000
H      -4.107220000000000     -1.857500000000000     -0.840290000000000
H      -2.448730000000000     -3.152160000000000     -1.871760000000000
H      -3.245070000000000      0.692670000000000      0.642600000000000
C      -5.370590000000000      0.111430000000000      0.554940000000000
He      1.732260000000000      0.551330000000000     -0.161420000000000
H      -5.925980000000000     -0.730230000000000      0.104450000000000
C      -5.611660000000000      0.090380000000000      2.065000000000000
H      -6.680610000000000      0.221440000000000      2.296020000000000
H      -5.277410000000000     -0.858700000000000      2.509900000000000
H      -5.061090000000000      0.906540000000000      2.561500000000000
C      -5.885220000000000      1.411270000000000     -0.065120000000000
H      -5.747750000000000      1.414810000000000     -1.156550000000000
H      -6.956490000000000      1.553130000000000      0.148210000000000
H      -5.345450000000000      2.281470000000000      0.343540000000000
