25

C      -0.062280000000000      1.440170000000000     -0.398180000000000
C       1.214600000000000      1.410550000000000     -1.013790000000000
C      -0.765110000000000      2.652570000000000     -0.336060000000000
C       2.037320000000000      0.202380000000000     -1.160960000000000
C       1.747560000000000      2.621350000000000     -1.495550000000000
C      -0.220930000000000      3.836120000000000     -0.835270000000000
H      -1.762860000000000      2.667120000000000      0.110670000000000
C       1.611160000000000     -1.068210000000000     -1.194830000000000
H       3.111440000000000      0.387140000000000     -1.292250000000000
C       1.047110000000000      3.818610000000000     -1.413040000000000
H       2.739480000000000      2.605420000000000     -1.956550000000000
H      -0.787720000000000      4.767950000000000     -0.767670000000000
H       0.531460000000000     -1.268410000000000     -1.122270000000000
C       2.488900000000000     -2.274970000000000     -1.315900000000000
H       1.490340000000000      4.738180000000000     -1.802280000000000
He     -0.982120000000000     -0.109820000000000      0.379500000000000
H       3.532430000000000     -1.930170000000000     -1.430070000000000
C       2.398790000000000     -3.120820000000000     -0.043710000000000
H       3.032100000000000     -4.018690000000000     -0.121190000000000
H       2.717950000000000     -2.548060000000000      0.839640000000000
H       1.362680000000000     -3.450700000000000      0.135430000000000
C       2.113440000000000     -3.096550000000000     -2.548850000000000
H       2.204430000000000     -2.500400000000000     -3.468970000000000
H       2.761320000000000     -3.981790000000000     -2.646340000000000
H       1.071670000000000     -3.450240000000000     -2.479550000000000
