19
Properties=species:S:1:pos:R:3 RH_Sub42.log=T Energy:=T -157925.2466288=T pbc="F F F"
N       -1.36674000       0.08122000      -0.63059000
C       -1.70153000       1.13937000       0.28712000
H       -2.17130000      -0.16257000      -1.19959000
C       -0.81403000      -1.10655000      -0.02513000
H       -1.47475000      -1.55027000       0.75620000
H       -0.71272000      -1.86864000      -0.81652000
C        0.55968000      -0.86602000       0.59920000
H        0.95532000      -1.84675000       0.92036000
H        0.47052000      -0.26253000       1.51775000
C        1.52568000      -0.21446000      -0.33864000
C        2.27382000       0.85111000      -0.05210000
H        2.97106000       1.27505000      -0.77941000
H        2.21469000       1.34274000       0.92504000
H        1.60854000      -0.66912000      -1.33430000
H       -2.34400000       0.82391000       1.14010000
H       -2.22497000       1.94462000      -0.24934000
H       -0.78697000       1.58434000       0.71123000
Xe       1.89975000       0.31832500      -0.19537000
Xe       1.64259589      -0.85598760      -1.74352139
