16
Properties=species:S:1:pos:R:3 RH_Sub31.log=T Energy:=T -406204.4170859=T pbc="F F F"
S        1.78251000      -0.55077000      -0.35691000
H        1.14800000      -1.68739000      -0.71978000
C        0.68768000      -0.15258000       1.03493000
H        0.71679000      -0.96995000       1.76961000
H        1.13162000       0.72985000       1.51903000
C       -1.03562000       1.43296000      -0.08799000
H       -2.09037000       1.60026000      -0.33209000
C       -0.12762000       2.33569000      -0.44968000
H       -0.43114000       3.24351000      -0.97651000
C       -0.77182000       0.15702000       0.67895000
H       -1.31751000       0.24372000       1.63940000
C       -1.37968000      -0.98552000      -0.01199000
H        0.94084000       2.20839000      -0.26186000
N       -1.83656000      -1.89737000      -0.55892000
Xe      -0.58162000       1.88432500      -0.26883500
Xe       1.38479715       2.15549542      -0.18381868
