27
Properties=species:S:1:pos:R:3 RH_Sub20.log=T Energy:=T -241944.5309907=T pbc="F F F"
N       -2.79691000       1.01207000       0.27154000
H       -2.70860000       0.73190000       1.24624000
H       -3.67605000       1.52039000       0.21181000
C       -2.83335000      -0.15763000      -0.59246000
H       -3.50069000      -0.96346000      -0.21376000
H       -3.26134000       0.15452000      -1.55933000
C        1.21376000       0.39644000       0.36366000
N        2.32236000      -0.41821000       0.28150000
C        1.12922000       1.62146000      -0.19717000
H        1.93731000       2.05683000      -0.78697000
C       -1.45917000      -0.75696000      -0.86724000
H       -0.83455000      -0.00822000      -1.38249000
H       -1.60417000      -1.59072000      -1.57458000
C        0.06805000      -0.19873000       1.13929000
H       -0.60557000       0.61698000       1.42695000
H        0.46395000      -0.64155000       2.07019000
C       -0.70586000      -1.27268000       0.35894000
H       -1.40972000      -1.78084000       1.04330000
H        0.00222000      -2.05748000       0.03959000
H        0.21864000       2.20589000      -0.06294000
H        2.16851000      -1.39366000       0.49375000
C        3.41372000      -0.11749000      -0.59447000
H        4.16833000      -0.91370000      -0.53391000
H        3.90247000       0.82679000      -0.29939000
H        3.10285000      -0.00722000      -1.65305000
Xe       1.17149000       1.00895000       0.08324500
Xe      -0.16124237       2.44970675      -0.00694095
