36
Properties=species:S:1:pos:R:3 aa253_opt_TZ.log=T Energy:=T -492868.6031349=T pbc="F F F"
C       -2.76549000       2.70644000      -0.01194000
C       -0.84443000       0.67265000      -0.02028000
O        1.87006000       1.32695000      -0.00911000
C       -4.99744000      -0.59847000       0.09811000
C        3.28803000       1.37670000       0.01098000
H       -5.08603000       0.08063000      -0.75207000
H       -5.85738000      -1.26849000       0.11950000
C        3.73693000      -0.11664000       0.01600000
H       -0.50040000       1.69352000      -0.01613000
H       -2.18378000       2.95043000       0.88255000
H        3.63557000       1.91488000      -0.87561000
C        1.52906000       0.00506000      -0.01633000
C        0.11753000      -0.33488000      -0.02767000
C       -0.28452000      -1.66599000      -0.03945000
C       -1.62844000      -1.96186000      -0.03628000
H        4.75614000      -1.54287000      -1.22820000
H        5.49829000       0.06692000      -1.22109000
C        4.55551000      -0.47528000      -1.22420000
N        2.47861000      -0.83485000      -0.00637000
H        4.00204000      -0.22638000      -2.12697000
H        0.46360000      -2.44064000      -0.04723000
H        4.70467000      -1.54845000       1.29452000
H        5.45257000       0.05871000       1.31797000
O       -3.87756000      -1.44772000      -0.02162000
H       -2.18496000       2.95931000      -0.90477000
H        3.60975000       1.91285000       0.90846000
C        4.50845000      -0.48007000       1.28500000
C       -2.60699000      -0.96609000      -0.02249000
C       -2.20006000       0.38403000      -0.01961000
O       -3.16789000       1.35937000      -0.01883000
H       -1.97324000      -2.98368000      -0.04238000
H       -4.96585000      -0.01755000       1.02274000
H        3.92261000      -0.23093000       2.16714000
H       -3.68953000       3.28324000      -0.00846000
Xe       4.14622000      -0.29596000      -0.60410000
Xe       4.84051857      -1.99186426      -1.22988227
