23
Properties=species:S:1:pos:R:3 aa273_opt_TZ.log=T Energy:=T -1915300.1125564=T pbc="F F F"
C       -0.18105000      -1.13175000       0.24500000
Br       3.80408000      -0.02079000       0.00918000
C        1.89866000       0.00571000      -0.00337000
C        1.19891000      -1.16170000       0.25400000
C        1.23926000       1.19175000      -0.27734000
C       -0.14261000       1.21136000      -0.27870000
C       -0.87047000       0.05382000      -0.00975000
C       -2.34031000       0.04192000       0.00017000
C       -3.09441000       1.17972000       0.29463000
C       -4.47484000       1.08836000       0.28036000
C       -5.06568000      -0.12791000      -0.02367000
C       -4.23189000      -1.20603000      -0.28350000
N       -2.91683000      -1.12858000      -0.27018000
H        1.72930000      -2.07946000       0.45722000
H       -0.74989000      -2.02783000       0.43618000
H        1.80099000       2.08859000      -0.49015000
H       -0.65155000       2.13371000      -0.51409000
H       -2.61146000       2.10962000       0.55135000
H       -5.08145000       1.95373000       0.50691000
H       -6.13833000      -0.23850000      -0.05040000
H       -4.63603000      -2.18360000      -0.51418000
Xe      -3.78462500       1.13404000       0.28749500
Xe      -5.33939624       2.32170768       0.60324491
