20
Properties=species:S:1:pos:R:3 RH_Sub5.log=T Energy:=T -529890.2521812=T pbc="F F F"
C       -2.75216000       1.26360000       0.00007000
C       -3.34592000       0.00007000       0.00016000
C       -1.39647000       1.59115000       0.00005000
C       -2.75214000      -1.26367000      -0.00008000
H       -4.44056000       0.00003000      -0.00007000
C       -0.28916000       0.74607000      -0.00020000
C        1.05129000      -1.15771000       0.00001000
C       -1.39661000      -1.59116000       0.00000000
H       -3.44337000      -2.11118000      -0.00029000
C       -0.28907000      -0.74614000       0.00015000
C        1.05136000       1.15780000      -0.00000000
C        1.84343000       0.00015000      -0.00001000
H        1.41480000      -2.18343000       0.00001000
H       -1.16404000      -2.66151000      -0.00016000
H        1.41456000       2.18363000       0.00014000
Cl       3.55756000      -0.00006000       0.00000000
H       -1.16393000       2.66148000      -0.00013000
H       -3.44339000       2.11106000      -0.00043000
Xe       0.38110000       0.95193500      -0.00010000
Xe       1.56671341       2.61337541       0.00019865
