20
Properties=species:S:1:pos:R:3 RH_Sub16.log=T Energy:=T -490792.9532427=T pbc="F F F"
S       -2.96737000       0.43249000      -0.00001000
C       -1.55373000      -0.67956000       0.00000000
H       -3.84583000      -0.59113000      -0.00000000
O       -1.69399000      -1.87470000       0.00001000
C       -0.22386000      -0.00874000       0.00000000
C       -0.06771000       1.37981000       0.00000000
C        0.90547000      -0.83674000      -0.00000000
C        1.21320000       1.92496000       0.00000000
C        2.19371000      -0.30382000      -0.00000000
H        0.74649000      -1.91759000      -0.00000000
C        2.32891000       1.09224000       0.00000000
H        1.34248000       3.00954000       0.00000000
C        3.40497000      -1.19023000      -0.00000000
H        3.32990000       1.53330000      -0.00000000
H       -0.93961000       2.03844000       0.00001000
H        4.03271000      -1.00493000       0.88589000
H        4.03266000      -1.00500000      -0.88595000
H        3.12519000      -2.25242000       0.00005000
Xe       1.54959000      -0.57028000      -0.00000000
Xe       0.68045781      -2.36651999       0.00000000
