17
Properties=species:S:1:pos:R:3 RH_Sub2.log=T Energy:=T -232519.4474836=T pbc="F F F"
C        0.37428000       0.76592000       0.00006000
C        0.62155000      -0.60937000      -0.00003000
C       -0.90511000       1.30204000       0.00001000
C       -0.49501000      -1.45030000      -0.00005000
C       -1.99867000       0.43742000       0.00001000
C       -1.79324000      -0.94040000       0.00002000
H       -1.02523000       2.38697000      -0.00010000
H       -3.01170000       0.84586000      -0.00002000
H       -2.64569000      -1.62298000       0.00011000
F        1.42277000       1.59543000      -0.00003000
C        2.02939000      -1.12016000       0.00002000
H        2.04921000      -2.21826000      -0.00001000
H        2.58259000      -0.76466000      -0.88334000
H        2.58237000      -0.76474000       0.88356000
H       -0.33553000      -2.53202000      -0.00015000
Xe      -0.26541500       1.03398000       0.00003500
Xe      -1.07521440       2.83843167      -0.00014577
