20

He     -0.240310000000000      0.347370000000000     -0.328570000000000
H      -1.039590000000000      0.509260000000000     -3.101610000000000
C      -1.864560000000000      0.185660000000000     -2.465240000000000
C      -3.009100000000000      1.008420000000000     -2.297590000000000
C      -1.823830000000000     -1.109380000000000     -1.939310000000000
C      -4.111370000000000      0.570560000000000     -1.589990000000000
H      -3.008990000000000      2.007820000000000     -2.738940000000000
C      -2.969990000000000     -1.553030000000000     -1.252950000000000
H      -0.987450000000000     -1.765840000000000     -2.177500000000000
C      -4.107540000000000     -0.733690000000000     -1.049510000000000
H      -4.982530000000000      1.217610000000000     -1.460300000000000
N      -3.220980000000000     -2.780940000000000     -0.698510000000000
C      -5.053710000000000     -1.524770000000000     -0.321850000000000
C      -2.380530000000000     -3.936850000000000     -0.877060000000000
C      -4.478440000000000     -2.759760000000000     -0.142380000000000
H      -6.039740000000000     -1.221040000000000      0.022830000000000
H      -1.334710000000000     -3.676070000000000     -0.659430000000000
H      -2.451070000000000     -4.324430000000000     -1.907240000000000
H      -2.699030000000000     -4.727920000000000     -0.185660000000000
H      -4.873680000000000     -3.650310000000000      0.344110000000000
