14

He      0.357420000000000     -0.003920000000000     -0.341780000000000
H       1.654370000000000     -3.383280000000000     -1.562420000000000
C       1.867830000000000     -2.391280000000000     -1.948780000000000
C       3.086060000000000     -1.776720000000000     -2.038190000000000
C       0.906870000000000     -1.435480000000000     -2.401220000000000
O       2.947040000000000     -0.511460000000000     -2.524870000000000
C       4.378670000000000     -2.187500000000000     -1.638610000000000
C       1.627480000000000     -0.300190000000000     -2.749800000000000
H      -0.145500000000000     -1.621550000000000     -2.598350000000000
N       5.430990000000000     -2.537400000000000     -1.293790000000000
C       1.284860000000000      0.908850000000000     -3.533550000000000
H       0.244730000000000      1.200990000000000     -3.347520000000000
H       1.421610000000000      0.715890000000000     -4.610620000000000
H       1.940250000000000      1.744610000000000     -3.255130000000000
