22

He      0.398400000000000     -0.204560000000000      0.142900000000000
H      -2.254660000000000      2.659270000000000      0.848500000000000
C      -2.253290000000000      1.618580000000000      1.171570000000000
C      -1.131900000000000      1.098840000000000      1.842560000000000
C      -3.350050000000000      0.806570000000000      0.927870000000000
C      -1.134380000000000     -0.242200000000000      2.251850000000000
H      -0.321420000000000      1.759010000000000      2.154500000000000
C      -3.417690000000000     -0.544220000000000      1.345190000000000
I      -4.959680000000000      1.707150000000000     -0.114040000000000
C      -2.275570000000000     -1.009090000000000      1.992080000000000
H      -0.329610000000000     -0.645660000000000      2.869040000000000
C      -4.644360000000000     -1.422980000000000      1.204740000000000
F      -2.255580000000000     -2.278040000000000      2.425430000000000
H      -5.392860000000000     -0.818470000000000      0.670950000000000
C      -4.398860000000000     -2.671560000000000      0.359760000000000
H      -5.329840000000000     -3.252390000000000      0.266560000000000
H      -4.069010000000000     -2.397840000000000     -0.652300000000000
H      -3.634520000000000     -3.322200000000000      0.807200000000000
C      -5.237200000000000     -1.761750000000000      2.574090000000000
H      -5.454560000000000     -0.847160000000000      3.145760000000000
H      -6.179170000000000     -2.319360000000000      2.454060000000000
H      -4.548870000000000     -2.380950000000000      3.167210000000000
