22

He     -0.049560000000000     -0.125250000000000      0.264000000000000
H      -0.667390000000000      0.224340000000000      2.985580000000000
C      -1.400590000000000      0.470210000000000      2.216410000000000
S      -2.978510000000000     -0.251870000000000      2.246040000000000
C      -1.388400000000000      1.610040000000000      1.416280000000000
C      -3.642200000000000      0.910730000000000      1.133520000000000
C      -2.673480000000000      1.823700000000000      0.806370000000000
H      -0.621380000000000      2.381860000000000      1.470760000000000
C      -5.094620000000000      0.814970000000000      0.697350000000000
Cl     -2.902270000000000      3.162910000000000     -0.268240000000000
C      -5.180200000000000      0.678190000000000     -0.827760000000000
H      -6.235290000000000      0.640130000000000     -1.142750000000000
H      -4.699460000000000      1.522710000000000     -1.338560000000000
H      -4.689990000000000     -0.247590000000000     -1.161180000000000
C      -5.768890000000000     -0.407660000000000      1.327610000000000
H      -5.753510000000000     -0.358810000000000      2.427510000000000
H      -6.821040000000000     -0.455590000000000      1.008820000000000
H      -5.277630000000000     -1.343000000000000      1.017230000000000
C      -5.834950000000000      2.077770000000000      1.162540000000000
H      -6.892890000000000      2.028910000000000      0.858970000000000
H      -5.793690000000000      2.169880000000000      2.258330000000000
H      -5.393210000000000      2.984120000000000      0.726630000000000
