19

He     -0.194600000000000     -0.118800000000000      0.133680000000000
H      -0.952890000000000     -0.296450000000000      2.972570000000000
C      -1.754190000000000      0.168310000000000      2.396330000000000
C      -3.004060000000000     -0.478670000000000      2.258390000000000
C      -1.544070000000000      1.458220000000000      1.892220000000000
C      -3.980940000000000      0.214100000000000      1.587560000000000
H      -3.179410000000000     -1.482050000000000      2.647750000000000
C      -2.572160000000000      2.175560000000000      1.220560000000000
H      -0.603540000000000      1.964130000000000      2.118410000000000
C      -3.766040000000000      1.504310000000000      1.085080000000000
O      -5.240710000000000     -0.185450000000000      1.251010000000000
C      -2.355760000000000      3.542110000000000      0.659310000000000
O      -4.895640000000000      1.913180000000000      0.431800000000000
C      -5.890880000000000      0.976390000000000      0.774950000000000
H      -6.487910000000000      0.726780000000000     -0.115100000000000
H      -6.539280000000000      1.391400000000000      1.573450000000000
H      -1.658860000000000      3.494070000000000     -0.190570000000000
H      -1.903310000000000      4.209520000000000      1.408450000000000
H      -3.297730000000000      3.988420000000000      0.314320000000000
