17

He     -0.435650000000000     -0.115560000000000     -0.363700000000000
H       0.566810000000000     -1.022280000000000     -2.847640000000000
C      -0.190810000000000     -1.701280000000000     -2.461700000000000
C      -1.559250000000000     -1.591270000000000     -2.619170000000000
C       0.022880000000000     -3.019700000000000     -1.915670000000000
O      -2.169120000000000     -2.707440000000000     -2.174970000000000
C      -2.397610000000000     -0.632190000000000     -3.374880000000000
C      -1.210770000000000     -3.579770000000000     -1.747800000000000
O       1.190800000000000     -3.601560000000000     -1.618220000000000
H      -2.673740000000000     -1.059850000000000     -4.353130000000000
H      -1.847530000000000      0.301410000000000     -3.541730000000000
H      -3.329730000000000     -0.400760000000000     -2.839500000000000
H      -1.546660000000000     -4.526490000000000     -1.338880000000000
C       2.329970000000000     -3.035620000000000     -2.237480000000000
H       2.232880000000000     -3.077900000000000     -3.336450000000000
H       2.487890000000000     -1.997810000000000     -1.908560000000000
H       3.186730000000000     -3.648760000000000     -1.931840000000000
