16

He      0.272990000000000     -0.367770000000000     -0.270860000000000
H      -0.249460000000000      0.719500000000000     -2.766910000000000
C       0.691170000000000      0.266900000000000     -2.445060000000000
C       0.884540000000000     -1.155170000000000     -2.458450000000000
N       1.798570000000000      1.072260000000000     -2.488650000000000
C       2.225980000000000     -1.605520000000000     -2.367190000000000
O      -0.050410000000000     -2.072380000000000     -2.831740000000000
C       2.975640000000000      0.513200000000000     -2.378820000000000
N       3.265710000000000     -0.805070000000000     -2.296370000000000
H       2.404180000000000     -2.688130000000000     -2.375810000000000
C       4.113550000000000      1.411220000000000     -2.335830000000000
N       5.016920000000000      2.132410000000000     -2.262350000000000
C      -0.705700000000000     -1.806040000000000     -4.054950000000000
H      -1.384560000000000     -0.945470000000000     -3.962600000000000
H       0.025250000000000     -1.627820000000000     -4.863100000000000
H      -1.292930000000000     -2.702010000000000     -4.297670000000000
