16

He     -0.273820000000000     -0.388120000000000      0.197920000000000
H      -0.804870000000000     -0.236260000000000      3.059140000000000
C      -1.724560000000000     -0.235280000000000      2.473410000000000
C      -2.633290000000000     -1.306830000000000      2.543620000000000
C      -2.053090000000000      0.914870000000000      1.743690000000000
C      -3.848880000000000     -1.229300000000000      1.885110000000000
H      -2.376880000000000     -2.196120000000000      3.124320000000000
C      -3.300240000000000      0.996750000000000      1.083240000000000
H      -1.401180000000000      1.787470000000000      1.804150000000000
C      -4.181490000000000     -0.074880000000000      1.160200000000000
H      -4.559710000000000     -2.057350000000000      1.939880000000000
C      -3.644920000000000      2.192650000000000      0.256750000000000
H      -5.147790000000000     -0.013770000000000      0.652250000000000
H      -4.673120000000000      2.133890000000000     -0.121930000000000
H      -2.938090000000000      2.285280000000000     -0.580210000000000
Cl     -3.516070000000000      3.739190000000000      1.169440000000000
