13

He     -0.303630000000000      0.279460000000000     -0.284600000000000
H      -0.572660000000000     -0.866480000000000     -2.835280000000000
C      -1.530330000000000     -0.987490000000000     -2.327000000000000
C      -2.566160000000000     -0.082730000000000     -2.309090000000000
C      -2.020440000000000     -2.172040000000000     -1.673840000000000
O      -3.639850000000000     -0.627130000000000     -1.673340000000000
C      -2.776040000000000      1.230180000000000     -2.955940000000000
C      -3.291810000000000     -1.878500000000000     -1.300890000000000
H      -1.468380000000000     -3.088130000000000     -1.490870000000000
H      -3.475910000000000      1.138220000000000     -3.802550000000000
H      -1.819020000000000      1.613200000000000     -3.329480000000000
H      -3.199880000000000      1.964250000000000     -2.254360000000000
Cl     -4.453100000000000     -2.763480000000000     -0.426160000000000
