18

He     -0.066690000000000     -0.035980000000000     -0.072510000000000
H      -1.121530000000000     -0.419370000000000      2.734690000000000
C      -1.784390000000000      0.199830000000000      2.130240000000000
C      -3.094040000000000     -0.227740000000000      1.858500000000000
C      -1.349050000000000      1.458600000000000      1.724560000000000
Cl     -3.602140000000000     -1.798080000000000      2.371490000000000
C      -3.950880000000000      0.629050000000000      1.175690000000000
C      -2.229480000000000      2.336270000000000      1.031190000000000
H      -0.382910000000000      1.821450000000000      2.072180000000000
C      -3.536970000000000      1.905310000000000      0.778210000000000
Cl     -5.550380000000000      0.116670000000000      0.754500000000000
N      -1.756760000000000      3.554990000000000      0.633520000000000
H      -4.242150000000000      2.530920000000000      0.233130000000000
H      -0.764360000000000      3.526420000000000      0.381040000000000
C      -2.582840000000000      4.512540000000000     -0.036420000000000
H      -1.988230000000000      5.410750000000000     -0.253380000000000
H      -3.427120000000000      4.820310000000000      0.603120000000000
H      -3.008630000000000      4.147350000000000     -0.991970000000000
