17

He     -0.096180000000000     -0.205500000000000      0.023330000000000
H      -1.039430000000000      2.155810000000000      1.788730000000000
C      -1.773450000000000      1.355630000000000      1.697650000000000
C      -1.502030000000000      0.111920000000000      2.282910000000000
C      -3.007490000000000      1.610970000000000      1.090590000000000
C      -2.488080000000000     -0.893370000000000      2.250200000000000
H      -0.564340000000000     -0.024530000000000      2.822500000000000
C      -3.968200000000000      0.597840000000000      1.051570000000000
Cl     -3.316890000000000      3.158290000000000      0.384740000000000
C      -3.710340000000000     -0.648080000000000      1.622980000000000
O      -2.323890000000000     -2.112450000000000      2.786190000000000
Cl     -5.501490000000000      0.864720000000000      0.303510000000000
H      -4.467170000000000     -1.431780000000000      1.599740000000000
C      -1.215460000000000     -2.326740000000000      3.630550000000000
H      -0.260790000000000     -2.089920000000000      3.136430000000000
H      -1.294560000000000     -1.712780000000000      4.544550000000000
H      -1.240360000000000     -3.388120000000000      3.907090000000000
