16

He     -0.111890000000000     -0.276080000000000     -0.226140000000000
H      -0.335960000000000      1.485140000000000     -2.387000000000000
C      -1.072290000000000      0.848080000000000     -1.899910000000000
O      -2.248640000000000      1.503460000000000     -1.535610000000000
C      -1.350890000000000     -0.515480000000000     -2.161740000000000
C      -3.224400000000000      0.578130000000000     -1.487500000000000
C      -2.763340000000000     -0.690070000000000     -1.891120000000000
H      -0.754610000000000     -1.149970000000000     -2.814050000000000
C      -4.527430000000000      0.773960000000000     -1.052500000000000
C      -3.641450000000000     -1.775890000000000     -1.901940000000000
C      -5.402620000000000     -0.314970000000000     -1.067970000000000
Cl     -5.032060000000000      2.329440000000000     -0.491000000000000
C      -4.960830000000000     -1.570460000000000     -1.496430000000000
H      -3.298440000000000     -2.764080000000000     -2.215160000000000
H      -6.432290000000000     -0.164650000000000     -0.740140000000000
H      -5.666990000000000     -2.403890000000000     -1.502970000000000
