14

He     -0.272450000000000     -0.342590000000000     -0.547240000000000
H       1.695520000000000     -0.112450000000000     -2.565280000000000
C       1.503300000000000     -1.131290000000000     -2.235310000000000
C       0.472630000000000     -2.020540000000000     -2.525030000000000
N       2.504430000000000     -1.851810000000000     -1.616640000000000
C       0.869340000000000     -3.305930000000000     -2.042210000000000
H      -0.404100000000000     -1.796370000000000     -3.127870000000000
C       2.122100000000000     -3.162690000000000     -1.499370000000000
C       3.715770000000000     -1.286290000000000     -1.154160000000000
H       0.291410000000000     -4.226380000000000     -2.085430000000000
H       2.767000000000000     -3.886750000000000     -1.005510000000000
Cl      4.877970000000000     -0.925850000000000     -2.490860000000000
H       4.218000000000000     -1.984760000000000     -0.476650000000000
H       3.518820000000000     -0.342920000000000     -0.637280000000000
