17

He      0.328790000000000     -0.246840000000000     -0.358500000000000
H       0.915950000000000     -0.816540000000000     -3.054770000000000
C       1.513790000000000     -0.191060000000000     -2.392780000000000
S       3.232730000000000     -0.511750000000000     -2.304140000000000
C       1.216190000000000      1.136590000000000     -2.049990000000000
C       3.566630000000000      1.104440000000000     -1.741510000000000
C       2.420900000000000      1.848310000000000     -1.672000000000000
H       0.298830000000000      1.628140000000000     -2.374880000000000
C       4.938910000000000      1.541570000000000     -1.369450000000000
O       2.440600000000000      3.131250000000000     -1.240560000000000
H       5.307210000000000      1.021470000000000     -0.469550000000000
H       4.922030000000000      2.619540000000000     -1.157140000000000
H       5.661540000000000      1.355970000000000     -2.179860000000000
C       1.552150000000000      4.010570000000000     -1.896520000000000
H       1.720000000000000      3.999400000000000     -2.987530000000000
H       0.503320000000000      3.754910000000000     -1.679180000000000
H       1.766050000000000      5.018020000000000     -1.514780000000000
