21

He     -0.088360000000000     -0.110760000000000      0.044480000000000
H      -0.792230000000000     -0.497280000000000      2.780840000000000
C      -1.587570000000000      0.029480000000000      2.251930000000000
C      -2.822750000000000     -0.553450000000000      1.969400000000000
C      -1.498140000000000      1.403180000000000      1.940760000000000
C      -3.855450000000000      0.133870000000000      1.371830000000000
O      -3.207260000000000     -1.853310000000000      2.143130000000000
C      -2.560780000000000      2.119220000000000      1.369950000000000
H      -0.592430000000000      1.938410000000000      2.230250000000000
C      -3.777040000000000      1.491170000000000      1.039720000000000
O      -4.904640000000000     -0.722190000000000      1.127770000000000
C      -4.600740000000000     -1.856030000000000      1.916760000000000
H      -2.430020000000000      3.181170000000000      1.162640000000000
N      -4.826940000000000      2.107670000000000      0.413810000000000
H      -4.885530000000000     -2.771180000000000      1.378870000000000
H      -5.131990000000000     -1.785630000000000      2.889230000000000
H      -5.701040000000000      1.602710000000000      0.419550000000000
C      -4.853810000000000      3.514990000000000      0.160340000000000
H      -5.782440000000000      3.771980000000000     -0.366590000000000
H      -4.012050000000000      3.813890000000000     -0.487780000000000
H      -4.799300000000000      4.127890000000000      1.081110000000000
