23

He      0.108200000000000     -0.139300000000000      0.117780000000000
H       0.508170000000000      0.708410000000000     -2.577300000000000
C       1.493430000000000      0.682440000000000     -2.103290000000000
C       2.203670000000000     -0.528920000000000     -1.969910000000000
N       2.050450000000000      1.854730000000000     -1.768750000000000
N       3.421990000000000     -0.506770000000000     -1.407090000000000
C       1.716300000000000     -1.827970000000000     -2.576980000000000
C       3.266510000000000      1.878410000000000     -1.246800000000000
C       3.922340000000000      0.642200000000000     -1.045830000000000
C       3.898050000000000      3.191250000000000     -0.919010000000000
Cl      5.509140000000000      0.636190000000000     -0.322580000000000
H       4.148480000000000      3.252560000000000      0.151010000000000
H       3.203450000000000      3.999000000000000     -1.177050000000000
H       4.840060000000000      3.324380000000000     -1.473230000000000
H       0.718840000000000     -2.023390000000000     -2.152830000000000
C       1.528980000000000     -1.658930000000000     -4.086500000000000
H       1.167510000000000     -2.599370000000000     -4.531010000000000
H       0.789010000000000     -0.878520000000000     -4.309440000000000
H       2.480700000000000     -1.396910000000000     -4.576440000000000
C       2.640550000000000     -2.992720000000000     -2.259580000000000
H       2.796060000000000     -3.111250000000000     -1.179120000000000
H       2.217900000000000     -3.928130000000000     -2.656370000000000
H       3.632790000000000     -2.841090000000000     -2.710370000000000
