15

He     -0.150440000000000     -0.045400000000000     -0.129740000000000
H      -0.649800000000000      0.789640000000000      2.668870000000000
C      -1.594050000000000      0.715650000000000      2.123640000000000
C      -2.419790000000000     -0.414800000000000      2.259750000000000
C      -2.109350000000000      1.755740000000000      1.346180000000000
N      -3.586780000000000     -0.564150000000000      1.678190000000000
Cl     -1.905390000000000     -1.704100000000000      3.291710000000000
C      -1.470850000000000      3.124270000000000      1.358050000000000
C      -3.348670000000000      1.612220000000000      0.709130000000000
C      -4.026470000000000      0.418260000000000      0.910950000000000
F      -0.222250000000000      3.103330000000000      1.805870000000000
F      -1.489040000000000      3.694490000000000      0.154870000000000
F      -2.170960000000000      3.925210000000000      2.175910000000000
H      -3.770690000000000      2.403160000000000      0.090000000000000
Cl     -5.562810000000000      0.177140000000000      0.141750000000000
