18

He     -0.337130000000000     -0.213680000000000     -0.514310000000000
H       0.512030000000000     -0.385080000000000     -3.206080000000000
C       0.409840000000000     -1.357310000000000     -2.731830000000000
C      -0.711050000000000     -2.163490000000000     -2.745350000000000
C       1.505370000000000     -2.203840000000000     -2.301370000000000
O      -0.402740000000000     -3.393870000000000     -2.317730000000000
C      -2.070200000000000     -1.969310000000000     -3.299980000000000
C       0.944800000000000     -3.428430000000000     -2.041520000000000
N       2.809300000000000     -1.805180000000000     -2.228860000000000
H      -2.183360000000000     -2.540570000000000     -4.235920000000000
H      -2.246950000000000     -0.909080000000000     -3.514660000000000
H      -2.844230000000000     -2.324530000000000     -2.603650000000000
H       1.336460000000000     -4.371130000000000     -1.676230000000000
H       2.890930000000000     -0.835200000000000     -1.914760000000000
C       3.761850000000000     -2.732280000000000     -1.699710000000000
H       4.746290000000000     -2.250920000000000     -1.621310000000000
H       3.864690000000000     -3.605180000000000     -2.368100000000000
H       3.488820000000000     -3.108620000000000     -0.695200000000000
