20

He      0.077700000000000     -0.145120000000000     -0.356170000000000
H       1.775320000000000      0.151680000000000     -2.725940000000000
C       1.669440000000000      1.040950000000000     -2.105350000000000
C       2.803650000000000      1.441630000000000     -1.360100000000000
C       0.505010000000000      1.804990000000000     -2.144270000000000
C       3.953920000000000      0.494230000000000     -1.440550000000000
C       2.743940000000000      2.647230000000000     -0.654300000000000
C       0.507020000000000      3.058910000000000     -1.488250000000000
H      -0.345120000000000      1.503820000000000     -2.758360000000000
O       4.011070000000000     -0.393930000000000     -2.257450000000000
O       4.890870000000000      0.689640000000000     -0.519050000000000
C       1.609970000000000      3.465380000000000     -0.747890000000000
Cl      4.018140000000000      3.250870000000000      0.348770000000000
C      -0.620740000000000      3.930900000000000     -1.610550000000000
C       6.009380000000000     -0.174890000000000     -0.579350000000000
H       1.605680000000000      4.421580000000000     -0.226460000000000
N      -1.514130000000000      4.660930000000000     -1.724790000000000
H       5.694630000000000     -1.224600000000000     -0.492860000000000
H       6.653080000000000      0.101710000000000      0.263340000000000
H       6.547490000000000     -0.049390000000000     -1.530460000000000
