21

He      0.108900000000000     -0.360940000000000     -0.365100000000000
H       0.556870000000000     -0.697750000000000     -3.104110000000000
C       1.307300000000000     -0.482310000000000     -2.343750000000000
S       2.733960000000000     -1.513160000000000     -2.316040000000000
C       1.558880000000000      0.795500000000000     -1.822160000000000
C       3.657420000000000     -0.283960000000000     -1.488060000000000
C       2.931580000000000      0.924120000000000     -1.347770000000000
H       0.923900000000000      1.632030000000000     -2.099210000000000
C       4.951050000000000     -0.459930000000000     -0.996910000000000
C       3.588440000000000      2.041160000000000     -0.772120000000000
C       5.545120000000000      0.624660000000000     -0.362080000000000
H       5.469860000000000     -1.413610000000000     -1.103800000000000
C       4.884200000000000      1.847430000000000     -0.259990000000000
N       3.020760000000000      3.295460000000000     -0.678930000000000
H       6.556010000000000      0.530820000000000      0.042440000000000
H       5.391870000000000      2.696720000000000      0.206480000000000
H       3.682930000000000      3.986070000000000     -0.352590000000000
C       2.047390000000000      3.816830000000000     -1.613300000000000
H       2.055650000000000      4.913140000000000     -1.541240000000000
H       1.028930000000000      3.481830000000000     -1.369380000000000
H       2.282960000000000      3.544230000000000     -2.657640000000000
