23

He      0.080820000000000      0.189460000000000     -0.022700000000000
H      -0.818790000000000      0.979480000000000     -2.571330000000000
C      -1.458220000000000      0.352090000000000     -1.951940000000000
C      -2.703140000000000      0.855410000000000     -1.509140000000000
C      -1.179360000000000     -1.024190000000000     -1.816790000000000
C      -2.978180000000000      2.298540000000000     -1.725790000000000
C      -3.639200000000000      0.019180000000000     -0.918460000000000
C      -2.188190000000000     -1.881930000000000     -1.297390000000000
H      -0.321730000000000     -1.445240000000000     -2.340460000000000
O      -2.248090000000000      3.048040000000000     -2.325800000000000
O      -4.134770000000000      2.688940000000000     -1.175590000000000
C      -3.390610000000000     -1.355420000000000     -0.816910000000000
H      -4.581770000000000      0.429320000000000     -0.560110000000000
C      -1.960660000000000     -3.291820000000000     -1.356770000000000
C      -4.468070000000000      4.053120000000000     -1.350460000000000
C      -4.465910000000000     -2.258060000000000     -0.265440000000000
N      -1.762640000000000     -4.428170000000000     -1.470920000000000
H      -4.535280000000000      4.306500000000000     -2.418550000000000
H      -3.707310000000000      4.699150000000000     -0.887800000000000
H      -5.439450000000000      4.197930000000000     -0.863630000000000
F      -5.062500000000000     -2.956820000000000     -1.233340000000000
F      -5.415680000000000     -1.555440000000000      0.361830000000000
F      -3.980850000000000     -3.138950000000000      0.614550000000000
