23

He     -0.069810000000000     -0.412300000000000     -0.464930000000000
H       1.277920000000000      0.490700000000000     -2.844260000000000
C       1.855740000000000     -0.249890000000000     -2.294560000000000
C       1.677960000000000     -1.622590000000000     -2.137890000000000
N       3.082020000000000      0.076640000000000     -1.767690000000000
C       2.829650000000000     -2.115830000000000     -1.461440000000000
H       0.882360000000000     -2.213570000000000     -2.584280000000000
C       3.673600000000000     -1.044580000000000     -1.236260000000000
C       3.548790000000000      1.437300000000000     -1.659010000000000
H       3.019050000000000     -3.146890000000000     -1.172600000000000
C       5.031270000000000     -1.019260000000000     -0.597880000000000
H       3.222110000000000      1.999160000000000     -2.543940000000000
H       4.645010000000000      1.464920000000000     -1.622530000000000
H       3.125920000000000      1.919940000000000     -0.764610000000000
H       5.117810000000000     -0.082360000000000     -0.020400000000000
C       5.205080000000000     -2.173860000000000      0.382110000000000
H       6.175660000000000     -2.104720000000000      0.896480000000000
H       4.408530000000000     -2.173120000000000      1.139790000000000
H       5.175780000000000     -3.142660000000000     -0.140890000000000
C       6.142510000000000     -1.023680000000000     -1.652600000000000
H       6.039370000000000     -0.186890000000000     -2.359680000000000
H       7.135820000000000     -0.951610000000000     -1.181560000000000
H       6.105260000000000     -1.954850000000000     -2.239120000000000
