16

He     -0.185850000000000      0.325410000000000     -0.314230000000000
H      -1.084210000000000     -1.940200000000000     -1.816170000000000
C      -1.697580000000000     -1.051760000000000     -1.692050000000000
C      -1.477180000000000      0.190080000000000     -2.280170000000000
C      -3.076980000000000     -1.019620000000000     -1.265990000000000
O      -2.632950000000000      0.934050000000000     -2.221940000000000
H      -0.753050000000000      0.486440000000000     -3.034380000000000
C      -3.574300000000000      0.211440000000000     -1.588010000000000
C      -3.806470000000000     -2.123920000000000     -0.594660000000000
C      -4.870000000000000      0.878650000000000     -1.332150000000000
H      -5.221400000000000      1.392980000000000     -2.238810000000000
H      -4.765760000000000      1.634530000000000     -0.536470000000000
H      -5.623140000000000      0.146380000000000     -1.020680000000000
F      -3.220860000000000     -3.301890000000000     -0.833390000000000
F      -5.078850000000000     -2.218150000000000     -1.012450000000000
F      -3.868320000000000     -1.984640000000000      0.742160000000000
