19

He     -0.272810000000000     -0.366760000000000     -0.424190000000000
H       1.019100000000000     -0.396310000000000     -2.970130000000000
C       1.271060000000000     -1.262220000000000     -2.358330000000000
C       0.392290000000000     -2.331560000000000     -2.137920000000000
C       2.575030000000000     -1.437040000000000     -1.876760000000000
C       0.787810000000000     -3.515360000000000     -1.452560000000000
H      -0.596100000000000     -2.305740000000000     -2.601490000000000
O       3.595700000000000     -0.565490000000000     -2.013250000000000
C       3.000620000000000     -2.584410000000000     -1.198440000000000
C       2.083490000000000     -3.629530000000000     -0.973160000000000
C      -0.186400000000000     -4.652200000000000     -1.329240000000000
C       4.674210000000000     -1.127940000000000     -1.420830000000000
C       4.392310000000000     -2.356550000000000     -0.911060000000000
H       2.396350000000000     -4.534750000000000     -0.446440000000000
H       5.584420000000000     -0.533980000000000     -1.441130000000000
H       5.086870000000000     -3.017030000000000     -0.397080000000000
H      -0.242080000000000     -5.225040000000000     -2.270550000000000
H      -1.203510000000000     -4.297110000000000     -1.108810000000000
H       0.108780000000000     -5.351490000000000     -0.534020000000000
