17

He     -0.340890000000000     -0.056270000000000     -0.310470000000000
H      -0.592680000000000     -1.003200000000000     -2.937940000000000
C      -1.254930000000000     -1.385200000000000     -2.159180000000000
C      -2.669270000000000     -1.201600000000000     -2.142020000000000
C      -0.819230000000000     -2.367000000000000     -1.253130000000000
C      -3.306200000000000     -2.010850000000000     -1.233160000000000
H      -3.200920000000000     -0.472530000000000     -2.753880000000000
S      -2.186660000000000     -3.062160000000000     -0.408860000000000
C       0.419180000000000     -3.200950000000000     -1.404520000000000
C      -4.668390000000000     -1.953330000000000     -0.857150000000000
H       1.228580000000000     -2.525360000000000     -1.701990000000000
C       0.243130000000000     -4.312860000000000     -2.433430000000000
H       0.714340000000000     -3.620200000000000     -0.433100000000000
N      -5.783480000000000     -1.892770000000000     -0.535170000000000
H       1.169500000000000     -4.900340000000000     -2.526160000000000
H       0.004160000000000     -3.897320000000000     -3.424240000000000
H      -0.570360000000000     -4.999900000000000     -2.153740000000000
