13

He      0.120750000000000     -0.365270000000000     -0.025390000000000
H      -1.327720000000000      1.332210000000000      1.919260000000000
C      -1.950440000000000      0.493370000000000      1.607300000000000
C      -1.633070000000000     -0.798200000000000      2.053730000000000
C      -3.136360000000000      0.683120000000000      0.878820000000000
C      -2.482800000000000     -1.872710000000000      1.758540000000000
H      -0.768880000000000     -0.934060000000000      2.706620000000000
C      -3.959490000000000     -0.384020000000000      0.547690000000000
I      -3.708250000000000      2.610380000000000      0.286540000000000
C      -3.616200000000000     -1.663010000000000      0.983480000000000
Cl     -2.143180000000000     -3.456810000000000      2.345110000000000
H      -4.870860000000000     -0.258090000000000     -0.037500000000000
F      -4.396720000000000     -2.685350000000000      0.652090000000000
