16

He      0.027680000000000      0.325930000000000     -0.155010000000000
H      -0.618010000000000     -0.797820000000000     -2.833660000000000
C      -1.507910000000000     -0.730920000000000     -2.202300000000000
C      -2.410620000000000      0.328070000000000     -2.329160000000000
C      -1.854290000000000     -1.764490000000000     -1.321310000000000
C      -3.574020000000000      0.419240000000000     -1.583350000000000
F      -2.147770000000000      1.282650000000000     -3.216730000000000
Br     -0.870870000000000     -3.365070000000000     -1.358140000000000
C      -3.009510000000000     -1.698310000000000     -0.535620000000000
C      -3.854940000000000     -0.602710000000000     -0.673210000000000
H      -4.238650000000000      1.273160000000000     -1.711620000000000
H      -3.246570000000000     -2.503560000000000      0.159330000000000
C      -5.137320000000000     -0.561570000000000      0.111590000000000
F      -4.999470000000000     -1.121600000000000      1.317660000000000
F      -6.116240000000000     -1.221690000000000     -0.515530000000000
F      -5.567240000000000      0.691870000000000      0.294710000000000
