16

He      0.044650000000000      0.092470000000000      0.038780000000000
H       1.344410000000000     -0.674340000000000     -2.438470000000000
C       1.828540000000000      0.186150000000000     -1.973430000000000
C       3.092510000000000      0.126480000000000     -1.401600000000000
C       1.241020000000000      1.470150000000000     -2.013590000000000
O       3.887090000000000     -0.969280000000000     -1.190940000000000
C       3.730080000000000      1.232110000000000     -0.870920000000000
C       1.910140000000000      2.597870000000000     -1.505510000000000
H       0.286640000000000      1.589550000000000     -2.528380000000000
C       5.107980000000000     -0.471310000000000     -0.773310000000000
O       4.914750000000000      0.819120000000000     -0.313060000000000
C       3.171030000000000      2.499500000000000     -0.914640000000000
H       1.424260000000000      3.573110000000000     -1.567680000000000
Cl      6.285170000000000     -0.466510000000000     -2.168510000000000
H       5.554820000000000     -1.109360000000000     -0.003260000000000
H       3.690420000000000      3.364840000000000     -0.502070000000000
