38

He     -0.791470000000000     -0.279690000000000     -0.202400000000000
H      -0.253510000000000      1.767540000000000     -2.396100000000000
C       0.605160000000000      1.133130000000000     -2.163920000000000
C       0.569120000000000     -0.239010000000000     -2.509100000000000
N       1.678770000000000      1.740220000000000     -1.640020000000000
C       1.695000000000000     -1.038860000000000     -2.277510000000000
H      -0.316300000000000     -0.620590000000000     -3.019540000000000
C       2.707630000000000      0.949730000000000     -1.403390000000000
C       2.801200000000000     -0.446560000000000     -1.672970000000000
H       1.689280000000000     -2.097430000000000     -2.550250000000000
N       3.889460000000000      1.321230000000000     -0.829180000000000
C       4.083710000000000     -0.896450000000000     -1.198200000000000
C       4.718080000000000      0.220840000000000     -0.683840000000000
H       4.079570000000000      2.253240000000000     -0.491420000000000
C       4.519930000000000     -2.326470000000000     -1.324190000000000
C       6.092280000000000      0.397290000000000     -0.110940000000000
C       5.635550000000000     -2.824370000000000     -0.418000000000000
H       4.796270000000000     -2.528010000000000     -2.376080000000000
H       3.626060000000000     -2.951240000000000     -1.147660000000000
H       6.604020000000000     -2.356810000000000     -0.649020000000000
H       5.767330000000000     -3.910350000000000     -0.538130000000000
H       5.410910000000000     -2.629320000000000      0.642040000000000
H       6.334620000000000     -0.522390000000000      0.443160000000000
C       6.197830000000000      1.552950000000000      0.888680000000000
H       5.447790000000000      1.430520000000000      1.686480000000000
H       5.969500000000000      2.508110000000000      0.379790000000000
C       7.600830000000000      1.650840000000000      1.477370000000000
H       7.657520000000000      2.495380000000000      2.182710000000000
H       7.808900000000000      0.739530000000000      2.066890000000000
C       8.654560000000000      1.796310000000000      0.384900000000000
H       9.663470000000000      1.828800000000000      0.826630000000000
H       8.509840000000001      2.763970000000000     -0.128980000000000
C       8.555240000000000      0.668680000000000     -0.636260000000000
H       8.820670000000000     -0.287170000000000     -0.148350000000000
H       9.288349999999999      0.815460000000000     -1.445640000000000
C       7.149830000000000      0.555950000000000     -1.215290000000000
H       6.909720000000000      1.458550000000000     -1.805340000000000
H       7.082420000000000     -0.292870000000000     -1.914110000000000
