13

He      0.359340000000000     -0.109140000000000     -0.312200000000000
H       0.788530000000000     -0.094780000000000     -3.077580000000000
C       1.461250000000000      0.374820000000000     -2.360210000000000
S       3.163660000000000     -0.020810000000000     -2.389770000000000
C       1.240750000000000      1.618130000000000     -1.756780000000000
C       3.596310000000000      1.424180000000000     -1.524990000000000
C       2.484380000000000      2.180720000000000     -1.291210000000000
H       0.344170000000000      2.215580000000000     -1.918350000000000
C       4.996500000000000      1.670030000000000     -1.087930000000000
Cl      2.547560000000000      3.692990000000000     -0.459260000000000
H       5.295150000000000      0.968480000000000     -0.291650000000000
H       5.083440000000000      2.690770000000000     -0.691880000000000
H       5.707800000000000      1.556010000000000     -1.920170000000000
