23

He     -0.201470000000000     -0.111900000000000      0.067570000000000
H      -0.514000000000000      0.441970000000000     -2.717920000000000
C      -1.463110000000000      0.155030000000000     -2.269600000000000
C      -2.286810000000000      1.035780000000000     -1.555590000000000
C      -2.188770000000000     -1.048360000000000     -2.446990000000000
N      -3.469380000000000      0.394960000000000     -1.290910000000000
C      -2.111450000000000      2.500570000000000     -1.339550000000000
C      -3.419510000000000     -0.877740000000000     -1.834550000000000
H      -1.847000000000000     -1.955620000000000     -2.936860000000000
C      -4.613910000000000      0.949810000000000     -0.614350000000000
H      -1.031700000000000      2.696790000000000     -1.401730000000000
H      -2.426050000000000      2.776580000000000     -0.307930000000000
N      -2.782120000000000      3.280370000000000     -2.359630000000000
C      -4.486220000000000     -1.790630000000000     -1.670440000000000
H      -5.113730000000000      0.165690000000000     -0.029200000000000
H      -5.345730000000000      1.367260000000000     -1.325420000000000
H      -4.288060000000000      1.739570000000000      0.073670000000000
N      -5.372980000000000     -2.527400000000000     -1.521260000000000
H      -3.773610000000000      3.057630000000000     -2.389050000000000
C      -2.589290000000000      4.698290000000000     -2.200130000000000
H      -3.142670000000000      5.246390000000000     -2.977110000000000
H      -1.521700000000000      4.943600000000000     -2.325410000000000
H      -2.899310000000000      5.100260000000000     -1.208850000000000
