20

He      0.089500000000000     -0.035990000000000      0.026000000000000
H       1.079970000000000     -0.696770000000000     -2.543500000000000
C       1.588410000000000      0.080010000000000     -1.975770000000000
C       2.923760000000000     -0.128200000000000     -1.562370000000000
C       1.018550000000000      1.362400000000000     -1.871970000000000
C       3.486250000000000     -1.492770000000000     -1.735390000000000
C       3.683310000000000      0.909170000000000     -1.041690000000000
C       1.825600000000000      2.438810000000000     -1.403770000000000
H       0.070730000000000      1.568580000000000     -2.368920000000000
O       2.899900000000000     -2.408500000000000     -2.257360000000000
O       4.724160000000000     -1.605080000000000     -1.239650000000000
C       3.132290000000000      2.194390000000000     -0.974750000000000
H       4.707790000000000      0.738180000000000     -0.714820000000000
C       1.306190000000000      3.767450000000000     -1.414510000000000
C       5.325380000000000     -2.879950000000000     -1.370360000000000
Cl      4.113010000000000      3.488690000000000     -0.388150000000000
N       0.870350000000000      4.841010000000000     -1.460470000000000
H       5.396220000000000     -3.172760000000000     -2.428090000000000
H       4.737340000000000     -3.641260000000000     -0.837250000000000
H       6.326280000000000     -2.794830000000000     -0.931660000000000
