25

He      0.191800000000000     -0.035180000000000     -0.057490000000000
H       0.489740000000000      1.844150000000000     -2.343310000000000
C       1.402640000000000      1.398510000000000     -1.945030000000000
C       1.678680000000000      0.041090000000000     -2.162600000000000
C       2.438200000000000      2.182830000000000     -1.383400000000000
C       2.957460000000000     -0.499090000000000     -1.828240000000000
H       0.966690000000000     -0.576190000000000     -2.713240000000000
C       3.632440000000000      1.501030000000000     -1.049730000000000
C       2.632060000000000      3.554450000000000     -1.031380000000000
N       3.915120000000000      0.213720000000000     -1.258160000000000
C       3.268450000000000     -1.920460000000000     -2.242620000000000
N       4.494970000000000      2.416070000000000     -0.511570000000000
C       3.898790000000000      3.653270000000000     -0.503710000000000
H       1.921950000000000      4.369130000000000     -1.143520000000000
H       5.428500000000000      2.192830000000000     -0.197720000000000
H       4.426620000000000      4.523620000000000     -0.119710000000000
H       2.346200000000000     -2.506160000000000     -2.092000000000000
C       3.588000000000000     -1.947490000000000     -3.740810000000000
H       3.770840000000000     -2.978540000000000     -4.082370000000000
H       2.762000000000000     -1.532040000000000     -4.337100000000000
H       4.490550000000000     -1.351900000000000     -3.950890000000000
C       4.393810000000000     -2.541240000000000     -1.430690000000000
H       4.160560000000000     -2.546400000000000     -0.357250000000000
H       4.573810000000000     -3.579140000000000     -1.750260000000000
H       5.322230000000000     -1.966680000000000     -1.560020000000000
