15

He     -0.474850000000000      0.041720000000000     -0.080830000000000
H      -0.332460000000000      0.728750000000000     -2.698710000000000
C      -1.272360000000000      1.090450000000000     -2.282740000000000
O      -1.357570000000000      2.447530000000000     -2.047160000000000
C      -2.570090000000000      0.582250000000000     -2.353450000000000
C      -2.639300000000000      2.763210000000000     -1.892720000000000
C      -3.447780000000000      1.677050000000000     -2.059830000000000
N      -2.965720000000000     -0.694810000000000     -2.631410000000000
H      -2.858490000000000      3.801580000000000     -1.652940000000000
H      -4.532470000000000      1.650520000000000     -1.984350000000000
H      -3.940760000000000     -0.801420000000000     -2.871660000000000
C      -2.041680000000000     -1.625690000000000     -3.218690000000000
H      -2.468330000000000     -2.637750000000000     -3.193970000000000
H      -1.108010000000000     -1.626070000000000     -2.636560000000000
H      -1.771220000000000     -1.374700000000000     -4.262940000000000
