12

He     -0.062870000000000      0.211820000000000      0.170830000000000
H       1.829460000000000     -2.840690000000000      0.907930000000000
C       2.669500000000000     -2.158940000000000      1.045090000000000
C       2.560010000000000     -0.995280000000000      1.798410000000000
C       3.864300000000000     -2.315080000000000      0.351720000000000
C       3.605220000000000     -0.073270000000000      1.853100000000000
Cl      1.063120000000000     -0.620470000000000      2.567490000000000
F       4.016070000000000     -3.385030000000000     -0.409150000000000
N       4.862220000000000     -1.461940000000000      0.353250000000000
C       4.723860000000000     -0.372240000000000      1.079950000000000
H       3.529490000000000      0.850790000000000      2.423690000000000
Cl      6.013210000000000      0.786580000000000      1.010500000000000
