21

He     -0.241280000000000      0.396710000000000     -0.198500000000000
H      -0.740230000000000      1.098840000000000     -2.996950000000000
C      -1.650940000000000      0.781190000000000     -2.480660000000000
N      -2.613700000000000      1.708370000000000     -2.333360000000000
C      -1.799550000000000     -0.561820000000000     -2.107850000000000
C      -3.753640000000000      1.309650000000000     -1.796150000000000
C      -3.035620000000000     -0.980600000000000     -1.564390000000000
H      -1.010830000000000     -1.278320000000000     -2.347490000000000
C      -4.016850000000000     -0.010360000000000     -1.399730000000000
H      -4.530070000000000      2.074830000000000     -1.671360000000000
C      -3.232280000000000     -2.439640000000000     -1.231260000000000
H      -4.992320000000000     -0.256000000000000     -0.977780000000000
H      -2.323620000000000     -2.736570000000000     -0.679940000000000
C      -4.450490000000000     -2.716070000000000     -0.362600000000000
H      -4.482890000000000     -3.777780000000000     -0.075290000000000
H      -4.437900000000000     -2.118350000000000      0.561430000000000
H      -5.388390000000000     -2.495720000000000     -0.897510000000000
C      -3.265720000000000     -3.279790000000000     -2.510470000000000
H      -2.361490000000000     -3.124960000000000     -3.116120000000000
H      -3.326790000000000     -4.351610000000000     -2.265250000000000
H      -4.139760000000000     -3.019940000000000     -3.129130000000000
