19

He     -0.407920000000000     -0.163740000000000     -0.164030000000000
H       0.204660000000000      0.239950000000000     -2.899480000000000
C      -0.773030000000000     -0.192980000000000     -2.698420000000000
C      -1.894750000000000      0.527590000000000     -2.306700000000000
C      -1.251900000000000     -1.501800000000000     -3.060040000000000
O      -2.992620000000000     -0.277010000000000     -2.397440000000000
C      -2.152460000000000      2.007270000000000     -2.196920000000000
C      -2.590920000000000     -1.489520000000000     -2.844660000000000
H      -0.654850000000000     -2.344510000000000     -3.397660000000000
H      -3.364380000000000     -2.249660000000000     -2.920320000000000
H      -1.534340000000000      2.385770000000000     -1.369310000000000
C      -1.682070000000000      2.718990000000000     -3.466550000000000
H      -1.850890000000000      3.804570000000000     -3.381230000000000
H      -0.608320000000000      2.551590000000000     -3.623490000000000
H      -2.231300000000000      2.356450000000000     -4.350130000000000
C      -3.615040000000000      2.311890000000000     -1.895900000000000
H      -3.966140000000000      1.802970000000000     -0.987910000000000
H      -3.750020000000000      3.394580000000000     -1.755530000000000
H      -4.263230000000000      1.991340000000000     -2.725410000000000
