32

He      0.522730000000000     -0.177270000000000      0.043960000000000
H      -1.240040000000000      1.416190000000000     -1.591090000000000
C      -1.572560000000000      0.376930000000000     -1.570410000000000
C      -2.727870000000000     -0.026810000000000     -0.913720000000000
C      -0.895310000000000     -0.621750000000000     -2.307340000000000
C      -3.184000000000000     -1.336630000000000     -0.944400000000000
O      -3.547860000000000      0.714090000000000     -0.120930000000000
C      -1.376310000000000     -1.938000000000000     -2.359450000000000
H      -0.027160000000000     -0.332330000000000     -2.901230000000000
C      -2.531800000000000     -2.320520000000000     -1.670280000000000
O      -4.294810000000000     -1.444430000000000     -0.160740000000000
C      -4.670270000000000     -0.111080000000000      0.172140000000000
H      -0.831670000000000     -2.681130000000000     -2.944520000000000
H      -2.905240000000000     -3.345170000000000     -1.690570000000000
H      -4.857560000000000     -0.063850000000000      1.258930000000000
C      -5.888740000000000      0.332110000000000     -0.615780000000000
H      -5.610570000000000      0.255860000000000     -1.684250000000000
C      -6.238860000000000      1.786340000000000     -0.305970000000000
H      -5.376590000000000      2.431310000000000     -0.532230000000000
H      -6.427380000000000      1.882640000000000      0.780380000000000
C      -7.475960000000000      2.238200000000000     -1.073360000000000
H      -7.728400000000000      3.277000000000000     -0.806440000000000
H      -7.246720000000000      2.243480000000000     -2.154170000000000
C      -8.663819999999999      1.316850000000000     -0.816770000000000
H      -9.534470000000001      1.636610000000000     -1.411810000000000
H      -8.964960000000000      1.401130000000000      0.243570000000000
C      -8.314670000000000     -0.135870000000000     -1.122600000000000
H      -8.125030000000001     -0.243750000000000     -2.205730000000000
H      -9.166950000000000     -0.794810000000000     -0.891130000000000
C      -7.078270000000000     -0.589340000000000     -0.354690000000000
H      -7.300460000000000     -0.584730000000000      0.729550000000000
H      -6.809850000000000     -1.624260000000000     -0.615300000000000
