23

He      0.149830000000000     -0.087350000000000     -0.302800000000000
H       0.749970000000000      0.257380000000000     -3.003670000000000
C       1.394790000000000      0.474250000000000     -2.150750000000000
S       3.038270000000000     -0.126070000000000     -2.149910000000000
C       1.307720000000000      1.661460000000000     -1.379250000000000
C       3.577840000000000      1.116560000000000     -1.039900000000000
C       2.572920000000000      1.975860000000000     -0.731270000000000
C       0.410960000000000      2.731860000000000     -1.702440000000000
C       5.023500000000000      1.142130000000000     -0.592480000000000
H       2.677200000000000      2.831040000000000     -0.065920000000000
N      -0.228880000000000      3.664420000000000     -1.960530000000000
C       5.455770000000000     -0.245910000000000     -0.104590000000000
H       6.512920000000000     -0.227420000000000      0.203590000000000
H       4.852470000000000     -0.569740000000000      0.754490000000000
H       5.348550000000000     -1.002490000000000     -0.897110000000000
C       5.896440000000000      1.555490000000000     -1.787800000000000
H       5.609300000000000      2.552000000000000     -2.155150000000000
H       6.958450000000000      1.583830000000000     -1.496400000000000
H       5.788360000000000      0.845880000000000     -2.622160000000000
C       5.202480000000000      2.154140000000000      0.539650000000000
H       6.251830000000000      2.163680000000000      0.871660000000000
H       4.946730000000000      3.173370000000000      0.214030000000000
H       4.571420000000000      1.899530000000000      1.404330000000000
