17

He      0.213080000000000      0.202880000000000     -0.098940000000000
H       0.989520000000000     -1.509710000000000      2.241020000000000
C       1.776850000000000     -1.702150000000000      1.504460000000000
C       2.930050000000000     -0.922330000000000      1.520160000000000
C       1.682090000000000     -2.732350000000000      0.567320000000000
C       3.976390000000000     -1.113050000000000      0.608430000000000
F       3.022550000000000      0.042530000000000      2.440690000000000
Br      0.209040000000000     -3.902650000000000      0.631990000000000
C       2.700120000000000     -2.946810000000000     -0.362600000000000
C       3.829240000000000     -2.138670000000000     -0.332220000000000
O       5.089400000000000     -0.351570000000000      0.525070000000000
H       2.614800000000000     -3.750210000000000     -1.094950000000000
H       4.640430000000000     -2.282030000000000     -1.048190000000000
C       5.651310000000000      0.212810000000000      1.689750000000000
H       5.105630000000000      1.110030000000000      2.016910000000000
H       5.675650000000000     -0.514880000000000      2.517170000000000
H       6.681620000000000      0.490490000000000      1.429440000000000
