17

He     -0.259900000000000     -0.383310000000000     -0.509240000000000
H       1.502900000000000      0.461070000000000     -2.570360000000000
C       1.701750000000000     -0.534690000000000     -2.179180000000000
C       0.932350000000000     -1.674200000000000     -2.388460000000000
C       2.939930000000000     -0.996150000000000     -1.597950000000000
N       1.627570000000000     -2.785210000000000     -1.954620000000000
H       0.033420000000000     -1.790570000000000     -2.988520000000000
C       4.140500000000000     -0.375020000000000     -1.232550000000000
C       2.843600000000000     -2.404020000000000     -1.446600000000000
H       1.240900000000000     -3.714940000000000     -1.890660000000000
C       5.190290000000000     -1.130740000000000     -0.724890000000000
Cl      4.332850000000000      1.328370000000000     -1.445620000000000
C       3.877370000000000     -3.176400000000000     -0.910140000000000
C       5.048810000000000     -2.518190000000000     -0.560260000000000
H       6.122130000000000     -0.632910000000000     -0.453700000000000
H       3.776690000000000     -4.256720000000000     -0.788990000000000
H       5.884130000000000     -3.087960000000000     -0.147300000000000
