18

He      0.285840000000000     -0.186120000000000     -0.205610000000000
H       0.386610000000000      0.800610000000000     -2.880320000000000
C       1.352380000000000      0.488490000000000     -2.488930000000000
C       1.745180000000000     -0.823030000000000     -2.228980000000000
C       2.512590000000000      1.316450000000000     -2.338770000000000
N       3.102500000000000     -0.817230000000000     -1.944860000000000
H       1.233190000000000     -1.758970000000000     -2.439720000000000
C       3.548800000000000      0.472910000000000     -2.000120000000000
H       2.552870000000000      2.398220000000000     -2.429700000000000
C       3.938660000000000     -1.972070000000000     -1.761040000000000
O       4.835190000000000      0.686680000000000     -1.692740000000000
H       4.423490000000000     -2.278270000000000     -2.703560000000000
H       3.328980000000000     -2.805280000000000     -1.389290000000000
H       4.722500000000000     -1.753480000000000     -1.023970000000000
C       5.254390000000000      2.024740000000000     -1.743180000000000
H       5.132740000000000      2.442340000000000     -2.757670000000000
H       4.684610000000000      2.645860000000000     -1.031170000000000
H       6.316600000000000      2.039280000000000     -1.468960000000000
