13

He     -0.433100000000000      0.022550000000000     -0.175330000000000
H       0.080290000000000      1.797500000000000     -2.264820000000000
C      -0.847240000000000      1.228920000000000     -2.173400000000000
C      -1.853510000000000      1.618920000000000     -1.261570000000000
C      -1.375830000000000      0.393210000000000     -3.224930000000000
S      -3.416760000000000      0.966110000000000     -1.752900000000000
C      -1.859240000000000      2.864770000000000     -0.448790000000000
C      -2.709930000000000      0.164340000000000     -3.110160000000000
H      -0.762680000000000     -0.030290000000000     -4.019120000000000
Cl     -2.521760000000000      4.283270000000000     -1.358840000000000
H      -0.831410000000000      3.129210000000000     -0.182960000000000
H      -2.477730000000000      2.774570000000000      0.452900000000000
H      -3.327310000000000     -0.472830000000000     -3.743480000000000
