19

He     -0.159210000000000     -0.150670000000000      0.283070000000000
H      -0.862870000000000      0.066860000000000      2.978580000000000
C      -1.519780000000000      0.362940000000000      2.160840000000000
S      -3.141770000000000     -0.284140000000000      2.081730000000000
C      -1.413160000000000      1.558810000000000      1.441470000000000
C      -3.681550000000000      0.987320000000000      1.025510000000000
C      -2.668790000000000      1.876520000000000      0.810560000000000
H      -0.628220000000000      2.296160000000000      1.605930000000000
C      -5.086950000000000      1.054930000000000      0.501620000000000
Cl     -2.877440000000000      3.282230000000000     -0.172840000000000
H      -5.012780000000000      1.515250000000000     -0.499280000000000
C      -5.726650000000000     -0.320370000000000      0.352040000000000
H      -6.735620000000000     -0.229960000000000     -0.077850000000000
H      -5.129920000000000     -0.972470000000000     -0.301230000000000
H      -5.827800000000000     -0.819250000000000      1.330090000000000
C      -5.934420000000000      1.980050000000000      1.378690000000000
H      -5.487110000000000      2.982820000000000      1.434600000000000
H      -6.953590000000000      2.077770000000000      0.972640000000000
H      -6.007630000000000      1.581370000000000      2.402700000000000
