13

He     -0.181420000000000      0.301360000000000     -0.100870000000000
H      -0.822430000000000     -1.215280000000000     -2.537420000000000
C      -1.738320000000000     -1.170260000000000     -1.939850000000000
C      -2.695760000000000     -0.181930000000000     -2.169580000000000
C      -2.055310000000000     -2.153470000000000     -0.995670000000000
C      -3.890950000000000     -0.106760000000000     -1.468960000000000
F      -2.465000000000000      0.720840000000000     -3.117160000000000
Br     -0.925500000000000     -3.646720000000000     -0.826310000000000
C      -3.239970000000000     -2.116920000000000     -0.256610000000000
C      -4.139100000000000     -1.083120000000000     -0.504340000000000
H      -4.606800000000000      0.686890000000000     -1.679420000000000
H      -3.468360000000000     -2.888130000000000      0.477780000000000
Cl     -5.621670000000000     -1.019940000000000      0.386840000000000
