26

He      0.090510000000000     -0.237120000000000     -0.279700000000000
H       0.605430000000000      0.335160000000000     -3.105960000000000
C       1.232300000000000      0.887240000000000     -2.407440000000000
C       2.444550000000000      0.398710000000000     -1.904150000000000
C       0.963250000000000      2.251260000000000     -2.154580000000000
C       3.282830000000000      1.185750000000000     -1.093700000000000
N       3.068610000000000     -0.827370000000000     -2.096320000000000
O      -0.132970000000000      2.748510000000000     -2.740620000000000
C       1.815330000000000      3.028390000000000     -1.358560000000000
C       2.989300000000000      2.512350000000000     -0.793280000000000
O       4.376270000000000      0.419620000000000     -0.779250000000000
C       4.164230000000000     -0.758960000000000     -1.418440000000000
C      -0.524850000000000      4.063700000000000     -2.450900000000000
H       1.584170000000000      4.067810000000000     -1.136810000000000
O       3.716650000000000      3.346780000000000     -0.029730000000000
C       5.196440000000000     -1.803840000000000     -1.251620000000000
H      -1.442400000000000      4.246270000000000     -3.023490000000000
H       0.240490000000000      4.794880000000000     -2.766020000000000
H      -0.739140000000000      4.174520000000000     -1.377760000000000
H       4.898890000000000     -2.691500000000000     -1.821060000000000
H       5.301000000000000     -2.068650000000000     -0.188230000000000
H       6.175190000000000     -1.449100000000000     -1.608420000000000
C       4.691200000000000      2.805290000000000      0.827490000000000
H       4.259460000000000      2.031000000000000      1.483580000000000
H       5.532480000000000      2.365890000000000      0.269560000000000
H       5.057990000000000      3.636110000000000      1.443640000000000
