19

He      0.013070000000000     -0.176500000000000      0.049250000000000
H      -1.118990000000000      0.369360000000000      2.751460000000000
C      -1.863460000000000      0.750020000000000      2.049610000000000
C      -3.061410000000000      0.083620000000000      1.822760000000000
C      -1.631530000000000      1.986430000000000      1.410580000000000
C      -4.020890000000000      0.607780000000000      0.942610000000000
H      -3.256500000000000     -0.866270000000000      2.323560000000000
C      -2.621450000000000      2.499320000000000      0.529750000000000
C      -0.528810000000000      2.896110000000000      1.564540000000000
C      -3.809700000000000      1.816310000000000      0.284060000000000
C      -5.325950000000000     -0.111140000000000      0.771160000000000
S      -2.155550000000000      4.046490000000000     -0.106270000000000
C      -0.690930000000000      4.025560000000000      0.830650000000000
H       0.342540000000000      2.667330000000000      2.174760000000000
H      -4.564480000000000      2.216170000000000     -0.394050000000000
H      -0.005910000000000      4.869790000000000      0.763120000000000
F      -5.962910000000000      0.254130000000000     -0.348640000000000
F      -6.162620000000000      0.121670000000000      1.788680000000000
F      -5.161550000000000     -1.442990000000000      0.713180000000000
