29

He      0.330240000000000      0.320850000000000     -0.161340000000000
H      -0.197120000000000      0.118270000000000     -3.085410000000000
C      -1.125780000000000      0.086780000000000     -2.511780000000000
C      -1.937390000000000      1.213320000000000     -2.352110000000000
C      -1.628230000000000     -1.117000000000000     -2.006060000000000
C      -3.140310000000000      1.182920000000000     -1.670980000000000
F      -1.532600000000000      2.367090000000000     -2.885440000000000
Cl     -0.818880000000000     -2.593940000000000     -2.398620000000000
C      -2.835060000000000     -1.177170000000000     -1.301220000000000
C      -3.596020000000000     -0.024190000000000     -1.117840000000000
H      -3.711550000000000      2.107170000000000     -1.564390000000000
H      -3.162050000000000     -2.138690000000000     -0.910020000000000
C      -4.910930000000000     -0.034870000000000     -0.373020000000000
H      -4.908170000000000      0.863230000000000      0.273180000000000
C      -5.115640000000000     -1.243620000000000      0.537740000000000
H      -4.257730000000000     -1.354300000000000      1.219740000000000
H      -5.146170000000000     -2.162650000000000     -0.073960000000000
C      -6.420300000000000     -1.131640000000000      1.317510000000000
H      -6.552720000000000     -2.013350000000000      1.964870000000000
H      -6.366110000000000     -0.256500000000000      1.991130000000000
C      -7.613570000000000     -0.974370000000000      0.381130000000000
H      -8.544680000000000     -0.854490000000000      0.958300000000000
H      -7.731240000000000     -1.901390000000000     -0.208680000000000
C      -7.422290000000000      0.201660000000000     -0.570360000000000
H      -7.434520000000000      1.142640000000000      0.009540000000000
H      -8.263940000000000      0.264730000000000     -1.278910000000000
C      -6.103830000000000      0.106140000000000     -1.330190000000000
H      -6.117410000000000     -0.769630000000000     -2.003520000000000
H      -5.966610000000000      0.988520000000000     -1.975360000000000
