11

Kr      0.104500000000000      0.011780000000000     -0.240070000000000
C       2.065210000000000      0.750740000000000     -0.599010000000000
N       3.074710000000000     -0.108490000000000     -0.386530000000000
C       2.381530000000000      2.039900000000000     -1.069570000000000
C       4.327550000000000      0.207470000000000     -0.595640000000000
C       3.706170000000000      2.391110000000000     -1.302120000000000
H       1.580790000000000      2.763480000000000     -1.232140000000000
C       4.721790000000000      1.464260000000000     -1.064000000000000
Cl      5.518320000000000     -1.022290000000000     -0.261920000000000
H       3.974110000000000      3.385570000000000     -1.666780000000000
Cl      6.376020000000000      1.872880000000000     -1.337890000000000
