12

Kr     -0.384680000000000      0.159860000000000     -0.259550000000000
C      -2.435970000000000     -0.253530000000000     -0.751550000000000
C      -3.474360000000000      0.495280000000000     -0.168010000000000
C      -2.880950000000000     -1.235120000000000     -1.657450000000000
C      -4.813840000000000      0.278400000000000     -0.457220000000000
H      -3.270520000000000      1.290920000000000      0.550850000000000
C      -4.226140000000000     -1.461000000000000     -1.957510000000000
Cl     -1.760240000000000     -2.291610000000000     -2.504090000000000
F      -5.737470000000000      1.039570000000000      0.146120000000000
C      -5.219660000000000     -0.699770000000000     -1.351330000000000
H      -4.490560000000000     -2.242770000000000     -2.671720000000000
H      -6.278630000000000     -0.855080000000000     -1.562950000000000
