12

Kr      0.449650000000000     -0.212750000000000     -0.426290000000000
C       2.437340000000000     -0.045690000000000     -1.215080000000000
C       3.541630000000000     -0.861970000000000     -1.059710000000000
C       2.778020000000000      1.076440000000000     -2.054760000000000
S       4.940100000000000     -0.254710000000000     -1.907550000000000
C       3.730420000000000     -2.149000000000000     -0.318020000000000
C       4.072990000000000      1.099520000000000     -2.497590000000000
H       2.063590000000000      1.861570000000000     -2.309690000000000
H       4.706080000000000     -2.599520000000000     -0.552420000000000
H       2.962440000000000     -2.885640000000000     -0.594460000000000
H       3.692970000000000     -2.014600000000000      0.775010000000000
H       4.555600000000000      1.837660000000000     -3.137470000000000
