19

Kr     -0.205630000000000      0.281830000000000     -0.306070000000000
C      -2.313670000000000      0.337630000000000     -0.643050000000000
N      -3.249720000000000      1.321020000000000     -0.313960000000000
C      -3.027490000000000     -0.718640000000000     -1.194590000000000
C      -4.524490000000000      0.894830000000000     -0.618820000000000
C      -2.978420000000000      2.628750000000000      0.203960000000000
C      -4.418470000000000     -0.401850000000000     -1.191210000000000
H      -2.580130000000000     -1.646940000000000     -1.543670000000000
C      -5.761130000000000      1.523860000000000     -0.445920000000000
H      -3.800780000000000      3.306670000000000     -0.062730000000000
H      -2.065500000000000      3.029920000000000     -0.249830000000000
H      -2.868150000000000      2.643720000000000      1.302310000000000
C      -5.588550000000000     -1.065590000000000     -1.594460000000000
C      -6.903280000000000      0.842320000000000     -0.855690000000000
H      -5.842550000000000      2.515040000000000      0.006550000000000
C      -6.817810000000000     -0.441380000000000     -1.424050000000000
H      -5.528920000000000     -2.063790000000000     -2.036730000000000
H      -7.882130000000000      1.311360000000000     -0.727940000000000
H      -7.733480000000000     -0.952150000000000     -1.732890000000000
