20

Kr     -0.034170000000000      0.303370000000000      0.296540000000000
C       2.052140000000000      0.418130000000000      0.582790000000000
S       2.832660000000000      1.951860000000000      0.933080000000000
C       3.004080000000000     -0.556440000000000      0.446180000000000
C       4.435490000000000      1.276800000000000      0.851770000000000
C       4.361880000000000     -0.113090000000000      0.597180000000000
H       2.728150000000000     -1.585930000000000      0.225440000000000
C       5.654320000000000      1.955570000000000      0.959950000000000
C       5.565150000000000     -0.852220000000000      0.468640000000000
C       6.819970000000000      1.220270000000000      0.798360000000000
H       5.685260000000000      3.030410000000000      1.149280000000000
C       6.774970000000000     -0.162570000000000      0.565710000000000
N       5.536890000000000     -2.227200000000000      0.199950000000000
H       7.790270000000000      1.718670000000000      0.866370000000000
H       7.710000000000000     -0.722390000000000      0.466820000000000
H       6.466610000000000     -2.555780000000000     -0.038760000000000
C       4.911590000000000     -3.116990000000000      1.158140000000000
H       4.944750000000000     -4.146700000000000      0.771450000000000
H       3.855290000000000     -2.857400000000000      1.303910000000000
H       5.396120000000000     -3.104560000000000      2.155090000000000
