12

Kr      0.445000000000000      0.091880000000000     -0.633010000000000
C       1.472030000000000      1.368150000000000     -1.983710000000000
C       2.808650000000000      1.485590000000000     -2.288440000000000
C       0.842450000000000      2.384510000000000     -2.798720000000000
O       3.023570000000000      2.482520000000000     -3.198770000000000
C       4.047410000000000      0.785120000000000     -1.857040000000000
C       1.822940000000000      3.016380000000000     -3.499200000000000
H      -0.224140000000000      2.598110000000000     -2.838590000000000
H       1.826050000000000      3.823670000000000     -4.228250000000000
H       3.866870000000000     -0.288270000000000     -1.720240000000000
H       4.457550000000000      1.183870000000000     -0.912290000000000
H       4.824300000000000      0.903600000000000     -2.625890000000000
