17

Kr     -0.127180000000000      0.243260000000000     -0.254870000000000
C      -2.237670000000000      0.311940000000000     -0.379360000000000
C      -3.051360000000000     -0.451240000000000     -1.225480000000000
C      -3.140950000000000      1.052070000000000      0.422520000000000
N      -4.376220000000000     -0.216620000000000     -0.951170000000000
C      -2.652430000000000     -1.434130000000000     -2.246090000000000
C      -4.443220000000000      0.711840000000000      0.059650000000000
H      -2.899670000000000      1.750920000000000      1.220900000000000
C      -5.498490000000000     -0.844830000000000     -1.599770000000000
H      -1.606760000000000     -1.273740000000000     -2.528700000000000
H      -3.283380000000000     -1.414820000000000     -3.144580000000000
Cl     -2.741140000000000     -3.156620000000000     -1.642580000000000
C      -5.675740000000000      1.178470000000000      0.569850000000000
H      -6.414890000000000     -0.612340000000000     -1.042380000000000
H      -5.359430000000000     -1.935560000000000     -1.617850000000000
H      -5.622250000000000     -0.482730000000000     -2.633540000000000
N      -6.689820000000000      1.562580000000000      0.991090000000000
