18

Kr      0.049400000000000      0.330770000000000      0.210470000000000
C       2.166760000000000      0.748330000000000      0.265850000000000
C       2.858630000000000      1.948890000000000     -0.020080000000000
C       3.021940000000000     -0.323850000000000      0.592910000000000
C       4.262840000000000      2.050310000000000      0.019750000000000
C       2.193930000000000      3.180830000000000     -0.328640000000000
C       4.408450000000000     -0.239830000000000      0.587980000000000
H       2.596260000000000     -1.303400000000000      0.816590000000000
C       5.085700000000000      0.962670000000000      0.308920000000000
H       4.728440000000000      3.018490000000000     -0.185720000000000
N       1.733010000000000      4.219750000000000     -0.568480000000000
Cl      5.305510000000000     -1.712410000000000      0.839770000000000
N       6.475960000000000      1.075930000000000      0.269170000000000
H       6.742310000000000      1.951180000000000     -0.168210000000000
C       7.244000000000000      0.841340000000000      1.475200000000000
H       8.314220000000001      0.946900000000000      1.244870000000000
H       7.085890000000000     -0.182830000000000      1.836900000000000
H       6.994330000000000      1.537620000000000      2.300510000000000
