14

Kr     -0.065120000000000      0.334330000000000      0.195330000000000
C       1.987980000000000      0.963750000000000      0.255730000000000
C       2.532890000000000      2.225520000000000      0.059310000000000
C       3.066240000000000      0.044130000000000      0.483260000000000
S       4.286040000000000      2.288280000000000      0.129050000000000
C       1.898580000000000      3.465510000000000     -0.180830000000000
C       4.323440000000000      0.605830000000000      0.440900000000000
O       2.892620000000000     -1.285900000000000      0.659100000000000
N       1.427830000000000      4.511410000000000     -0.376880000000000
Br      5.931250000000000     -0.311880000000000      0.646310000000000
C       2.743190000000000     -1.730540000000000      1.986720000000000
H       3.713550000000000     -1.742140000000000      2.512380000000000
H       2.041490000000000     -1.089240000000000      2.545210000000000
H       2.330560000000000     -2.746670000000000      1.935800000000000
