23

Kr     -0.015810000000000     -0.287660000000000     -0.221170000000000
C       1.992970000000000     -0.352190000000000     -0.891180000000000
C       3.014260000000000      0.330760000000000     -0.212980000000000
C       2.421650000000000     -1.139540000000000     -1.991040000000000
C       4.372630000000000      0.225670000000000     -0.509590000000000
H       2.735160000000000      0.992620000000000      0.609560000000000
C       1.477710000000000     -1.873150000000000     -2.783380000000000
C       3.770740000000000     -1.252080000000000     -2.343230000000000
C       4.750240000000000     -0.588730000000000     -1.598770000000000
C       5.404510000000000      0.916680000000000      0.354710000000000
N       0.742860000000000     -2.489750000000000     -3.437100000000000
H       4.064050000000000     -1.869670000000000     -3.194000000000000
C       6.127250000000000     -0.752360000000000     -1.952660000000000
N       7.243290000000000     -0.892360000000000     -2.239240000000000
H       6.380920000000000      0.810550000000000     -0.145050000000000
C       5.125890000000000      2.408700000000000      0.517210000000000
H       5.935740000000000      2.889150000000000      1.087380000000000
H       5.049610000000000      2.910480000000000     -0.458520000000000
H       4.185230000000000      2.587660000000000      1.061190000000000
C       5.501820000000000      0.215650000000000      1.711960000000000
H       5.743440000000000     -0.851120000000000      1.592430000000000
H       6.285860000000000      0.676200000000000      2.333320000000000
H       4.547220000000000      0.285740000000000      2.258590000000000
