24

Kr     -0.002770000000000      0.113570000000000     -0.200910000000000
C      -2.008700000000000     -0.695820000000000     -0.513090000000000
C      -3.168410000000000      0.036390000000000     -0.230420000000000
C      -2.305830000000000     -1.977740000000000     -1.011430000000000
C      -4.502800000000000     -0.380650000000000     -0.347650000000000
F      -3.004590000000000      1.311060000000000      0.204670000000000
Br     -0.950680000000000     -3.218770000000000     -1.554480000000000
C      -3.599710000000000     -2.472300000000000     -1.168150000000000
C      -4.686690000000000     -1.679040000000000     -0.826910000000000
C      -5.674140000000000      0.534080000000000      0.023910000000000
H      -3.755420000000000     -3.479250000000000     -1.557490000000000
H      -5.690050000000000     -2.086050000000000     -0.948970000000000
C      -5.576340000000000      0.934800000000000      1.504890000000000
H      -6.428790000000000      1.576480000000000      1.781320000000000
H      -5.600890000000000      0.041450000000000      2.147940000000000
H      -4.650040000000000      1.482870000000000      1.718150000000000
C      -5.666090000000000      1.786070000000000     -0.868270000000000
H      -5.755740000000000      1.504200000000000     -1.928880000000000
H      -6.519240000000000      2.436920000000000     -0.616370000000000
H      -4.743040000000000      2.366540000000000     -0.746070000000000
C      -7.017550000000000     -0.170990000000000     -0.178110000000000
H      -7.834860000000000      0.510930000000000      0.102650000000000
H      -7.175040000000000     -0.463210000000000     -1.227540000000000
H      -7.106530000000000     -1.071810000000000      0.448070000000000
