17

Kr      0.334140000000000     -0.144560000000000     -0.364340000000000
C       2.328730000000000      0.523530000000000     -0.908500000000000
C       3.545260000000000     -0.180300000000000     -0.898070000000000
C       2.450260000000000      1.881220000000000     -1.256880000000000
C       4.798640000000000      0.409280000000000     -1.145420000000000
Cl      3.597520000000000     -1.920510000000000     -0.611970000000000
C       3.668330000000000      2.522660000000000     -1.507700000000000
H       1.548900000000000      2.493190000000000     -1.321390000000000
C       4.845370000000000      1.772040000000000     -1.434860000000000
C       6.067760000000000     -0.389880000000000     -1.109150000000000
N       3.695320000000000      3.892080000000000     -1.754080000000000
H       5.814310000000000      2.247470000000000     -1.614910000000000
H       4.503190000000000      4.221890000000000     -2.267760000000000
H       2.831900000000000      4.261670000000000     -2.134130000000000
H       6.056710000000000     -1.190630000000000     -1.865590000000000
H       6.199280000000000     -0.887710000000000     -0.135580000000000
H       6.940170000000000      0.252400000000000     -1.294490000000000
