13

Kr      0.374850000000000     -0.179850000000000     -0.230610000000000
C       2.349480000000000      0.075160000000000     -0.913340000000000
S       3.581950000000000      0.834810000000000      0.024530000000000
C       2.918140000000000     -0.312450000000000     -2.123200000000000
C       4.830360000000000      0.634580000000000     -1.171140000000000
C       4.313000000000000      0.003530000000000     -2.265910000000000
C       2.164650000000000     -0.988250000000000     -3.124400000000000
C       6.222010000000000      1.119820000000000     -0.942730000000000
H       4.897130000000000     -0.235960000000000     -3.156260000000000
N       1.546640000000000     -1.555930000000000     -3.929320000000000
H       6.686460000000000      0.641260000000000     -0.065120000000000
H       6.255140000000000      2.208850000000000     -0.776500000000000
H       6.847500000000000      0.894980000000000     -1.818280000000000
