15

Kr      0.328420000000000      0.279640000000000      0.261150000000000
C       2.444480000000000      0.379100000000000      0.397420000000000
C       3.193220000000000      1.528840000000000      0.329350000000000
C       3.311830000000000     -0.753040000000000      0.583140000000000
S       4.895820000000000      1.248120000000000      0.479670000000000
H       2.856470000000000      2.558000000000000      0.196940000000000
C       4.650490000000000     -0.458700000000000      0.644670000000000
H       2.939590000000000     -1.777210000000000      0.661030000000000
C       5.799550000000000     -1.393010000000000      0.858770000000000
C       6.485310000000000     -1.228650000000000      2.212370000000000
H       6.544150000000000     -1.266450000000000      0.053220000000000
H       5.412340000000000     -2.419950000000000      0.758180000000000
H       7.317180000000000     -1.941010000000000      2.329260000000000
H       5.771180000000000     -1.394030000000000      3.033380000000000
H       6.890520000000000     -0.211470000000000      2.328300000000000
