17

Kr      0.017320000000000     -0.286580000000000     -0.176180000000000
C       2.090640000000000     -0.315730000000000     -0.649790000000000
C       3.030770000000000      0.324630000000000      0.171560000000000
C       2.623730000000000     -0.926760000000000     -1.809940000000000
C       4.388720000000000      0.357050000000000     -0.125870000000000
H       2.704770000000000      0.864030000000000      1.062230000000000
C       1.763600000000000     -1.592260000000000     -2.743970000000000
C       3.996740000000000     -0.907220000000000     -2.110990000000000
C       4.900080000000000     -0.263930000000000     -1.275540000000000
Cl      5.467840000000000      1.232670000000000      0.915190000000000
N       1.094720000000000     -2.146700000000000     -3.514600000000000
H       4.377720000000000     -1.382630000000000     -3.017030000000000
O       6.216750000000000     -0.213870000000000     -1.602650000000000
C       7.042110000000000     -1.123120000000000     -0.912740000000000
H       7.023540000000000     -0.946310000000000      0.176110000000000
H       6.741380000000000     -2.167410000000000     -1.111730000000000
H       8.066100000000000     -0.970280000000000     -1.279030000000000
