22

Kr      0.388390000000000      0.397340000000000     -0.064990000000000
C      -1.563100000000000      1.100110000000000     -0.602580000000000
C      -2.666920000000000      0.300680000000000     -0.280830000000000
C      -1.814960000000000      2.344260000000000     -1.232100000000000
C      -3.997020000000000      0.675470000000000     -0.504090000000000
H      -2.493240000000000     -0.697220000000000      0.125960000000000
C      -0.726170000000000      3.265320000000000     -1.697950000000000
C      -3.153380000000000      2.715930000000000     -1.442390000000000
C      -5.101130000000000     -0.225570000000000     -0.135340000000000
C      -4.237140000000000      1.920230000000000     -1.090870000000000
H      -0.891460000000000      3.568900000000000     -2.743190000000000
H       0.251960000000000      2.777870000000000     -1.625270000000000
H      -0.702590000000000      4.195250000000000     -1.105810000000000
Cl     -3.509410000000000      4.264710000000000     -2.175770000000000
C      -5.024940000000000     -1.176520000000000      0.860330000000000
C      -6.386100000000000     -0.248480000000000     -0.769410000000000
H      -5.249590000000000      2.284950000000000     -1.268420000000000
S      -6.475240000000000     -2.079000000000000      1.015940000000000
H      -4.185710000000000     -1.367050000000000      1.527460000000000
C      -7.225280000000000     -1.196860000000000     -0.253320000000000
H      -6.660260000000000      0.402880000000000     -1.600070000000000
H      -8.241930000000000     -1.434860000000000     -0.562920000000000
