13

Kr      0.315370000000000      0.266660000000000      0.298870000000000
C       2.417640000000000      0.257300000000000      0.601780000000000
C       3.219600000000000      1.370170000000000      0.549880000000000
C       3.193260000000000     -0.914800000000000      0.898380000000000
S       4.897650000000000      1.027440000000000      0.851160000000000
H       2.950840000000000      2.408970000000000      0.357040000000000
C       4.530110000000000     -0.663940000000000      1.058420000000000
H       2.778080000000000     -1.918830000000000      0.989080000000000
O       5.468120000000000     -1.587680000000000      1.334150000000000
C       6.787280000000000     -1.147800000000000      1.480530000000000
H       7.161450000000000     -0.672880000000000      0.554630000000000
H       6.883060000000000     -0.420340000000000      2.307610000000000
H       7.400920000000000     -2.030050000000000      1.704730000000000
