29

Kr      0.492820000000000     -0.093810000000000      0.106320000000000
C      -1.548990000000000      0.103900000000000     -0.473430000000000
N      -2.353300000000000     -0.957560000000000     -0.313120000000000
C      -2.144680000000000      1.268570000000000     -1.000580000000000
C      -3.618020000000000     -0.882420000000000     -0.638210000000000
N      -3.429940000000000      1.343700000000000     -1.329020000000000
H      -1.534010000000000      2.161320000000000     -1.167740000000000
Cl     -4.573800000000000     -2.335590000000000     -0.396530000000000
C      -4.212460000000000      0.274530000000000     -1.162330000000000
C      -5.665770000000000      0.377350000000000     -1.507520000000000
H      -5.985270000000000     -0.540780000000000     -2.026310000000000
H      -5.777860000000000      1.221020000000000     -2.206240000000000
C      -6.572980000000000      0.594260000000000     -0.290460000000000
H      -6.391370000000000     -0.240950000000000      0.412390000000000
C      -8.046410000000000      0.542730000000000     -0.692120000000000
H      -8.265820000000000     -0.420750000000000     -1.182260000000000
H      -8.234750000000000      1.326760000000000     -1.449480000000000
C      -8.973720000000000      0.755310000000000      0.499240000000000
H     -10.026059999999999      0.746140000000000      0.170970000000000
H      -8.859940000000000     -0.092300000000000      1.199380000000000
C      -8.653919999999999      2.053910000000000      1.231960000000000
H      -9.305289999999999      2.169050000000000      2.113900000000000
H      -8.876730000000000      2.908460000000000      0.567150000000000
C      -7.185480000000000      2.109570000000000      1.639010000000000
H      -6.988030000000000      1.323000000000000      2.390210000000000
H      -6.958210000000000      3.069780000000000      2.130340000000000
C      -6.264200000000000      1.899290000000000      0.442680000000000
H      -6.380570000000000      2.739810000000000     -0.266420000000000
H      -5.209510000000000      1.917600000000000      0.759310000000000
