16

Kr     -0.192000000000000     -0.226460000000000      0.298040000000000
C      -2.318230000000000     -0.347220000000000      0.607720000000000
C      -3.107450000000000     -1.492070000000000      0.408580000000000
C      -3.014720000000000      0.830490000000000      0.951260000000000
C      -4.506810000000000     -1.416940000000000      0.477980000000000
O      -2.547130000000000     -2.706670000000000      0.109720000000000
C      -4.400390000000000      0.876470000000000      1.036180000000000
H      -2.462550000000000      1.751850000000000      1.140680000000000
F      -5.225450000000000     -2.521390000000000      0.227600000000000
C      -5.181010000000000     -0.249410000000000      0.790390000000000
Cl     -5.182050000000000      2.387610000000000      1.415050000000000
H      -6.269870000000000     -0.231440000000000      0.829080000000000
C      -2.705040000000000     -3.697940000000000      1.094100000000000
H      -2.279810000000000     -3.372430000000000      2.060080000000000
H      -3.761870000000000     -3.971870000000000      1.241160000000000
H      -2.157600000000000     -4.586220000000000      0.748570000000000
