21

Kr     -0.155540000000000     -0.058350000000000      0.184630000000000
C      -2.138330000000000      0.704870000000000      0.654900000000000
C      -3.315280000000000      0.161720000000000      0.132610000000000
C      -2.403010000000000      1.755720000000000      1.553970000000000
C      -4.630540000000000      0.558230000000000      0.399500000000000
F      -3.219330000000000     -0.878360000000000     -0.733230000000000
Cl     -1.108720000000000      2.611670000000000      2.381380000000000
C      -3.680930000000000      2.214460000000000      1.873010000000000
C      -4.792220000000000      1.616980000000000      1.291550000000000
C      -5.782950000000000     -0.189180000000000     -0.238240000000000
H      -3.795180000000000      3.039700000000000      2.577200000000000
H      -5.789890000000000      1.982200000000000      1.540620000000000
H      -5.489400000000000     -0.386890000000000     -1.283240000000000
C      -5.980370000000000     -1.547160000000000      0.441810000000000
H      -6.779140000000000     -2.123790000000000     -0.052070000000000
H      -5.056920000000000     -2.142670000000000      0.409220000000000
H      -6.261140000000000     -1.411730000000000      1.498620000000000
C      -7.083170000000000      0.603460000000000     -0.261130000000000
H      -6.949990000000000      1.590030000000000     -0.730280000000000
H      -7.853020000000000      0.057790000000000     -0.827980000000000
H      -7.480800000000000      0.762360000000000      0.754130000000000
