24

Kr     -0.361110000000000      0.359660000000000      0.214330000000000
C       1.703450000000000      0.908940000000000      0.166430000000000
C       2.144120000000000      2.205660000000000     -0.191620000000000
C       2.698640000000000     -0.029500000000000      0.475920000000000
C       3.484400000000000      2.563390000000000     -0.261680000000000
H       1.412670000000000      2.982910000000000     -0.430750000000000
C       4.048200000000000      0.319150000000000      0.399850000000000
H       2.424660000000000     -1.050250000000000      0.752520000000000
C       4.475610000000000      1.613170000000000      0.027370000000000
H       3.771520000000000      3.580020000000000     -0.546520000000000
S       5.412860000000000     -0.725030000000000      0.703980000000000
C       5.908970000000000      1.717050000000000      0.004900000000000
C       6.547710000000000      0.560100000000000      0.336450000000000
H       6.446910000000000      2.630880000000000     -0.256360000000000
C       8.025230000000001      0.304980000000000      0.407740000000000
H       8.505080000000000      1.262130000000000      0.138990000000000
C       8.469230000000000     -0.066780000000000      1.823050000000000
H       9.562170000000000     -0.194300000000000      1.870460000000000
H       8.177840000000000      0.708700000000000      2.546570000000000
H       8.004619999999999     -1.013100000000000      2.143450000000000
C       8.466830000000000     -0.748380000000000     -0.609250000000000
H       8.174920000000000     -0.460750000000000     -1.629960000000000
H       9.559580000000000     -0.883800000000000     -0.584580000000000
H       8.000640000000001     -1.722650000000000     -0.391300000000000
