18

Kr     -0.143700000000000     -0.097940000000000      0.243310000000000
C      -2.193360000000000      0.464910000000000      0.486220000000000
C      -3.247010000000000     -0.300800000000000     -0.065090000000000
C      -2.548520000000000      1.609320000000000      1.225570000000000
C      -4.551730000000000      0.102190000000000      0.141370000000000
H      -3.076260000000000     -1.206480000000000     -0.651010000000000
C      -3.878830000000000      2.015900000000000      1.435570000000000
H      -1.757260000000000      2.228970000000000      1.653820000000000
C      -4.869720000000000      1.237370000000000      0.875090000000000
O      -5.704960000000000     -0.475380000000000     -0.312250000000000
H      -4.120290000000000      2.909640000000000      2.014280000000000
O      -6.225780000000000      1.400270000000000      0.897210000000000
C      -6.775280000000000      0.232460000000000      0.301380000000000
H      -7.479460000000000      0.547060000000000     -0.489490000000000
C      -7.454620000000000     -0.626310000000000      1.340760000000000
H      -7.865260000000000     -1.532280000000000      0.872810000000000
H      -8.270600000000000     -0.065740000000000      1.818430000000000
H      -6.724260000000000     -0.919210000000000      2.109320000000000
