24

Kr     -0.036490000000000     -0.092370000000000     -0.396570000000000
C       2.033510000000000      0.365720000000000     -0.868260000000000
C       3.195550000000000     -0.393890000000000     -0.617340000000000
C       2.253980000000000      1.683480000000000     -1.327120000000000
C       3.089530000000000     -1.854730000000000     -0.370680000000000
C       4.517340000000000      0.144060000000000     -0.722950000000000
C       3.536520000000000      2.205110000000000     -1.500500000000000
H       1.414080000000000      2.350030000000000     -1.518720000000000
O       2.526550000000000     -2.647850000000000     -1.081440000000000
O       3.758520000000000     -2.261810000000000      0.736120000000000
C       4.672530000000000      1.455080000000000     -1.183720000000000
N       5.622570000000000     -0.624300000000000     -0.428230000000000
C       3.688940000000000      3.555230000000000     -1.957170000000000
C       3.828520000000000     -3.662560000000000      0.936020000000000
H       5.659960000000000      1.899420000000000     -1.294550000000000
N       3.805230000000000      4.653520000000000     -2.313140000000000
H       4.301490000000000     -4.157960000000000      0.074760000000000
H       2.826550000000000     -4.088950000000000      1.074480000000000
H       4.428040000000000     -3.815140000000000      1.841670000000000
H       5.444020000000000     -1.354210000000000      0.248420000000000
C       6.949060000000000     -0.083090000000000     -0.444700000000000
H       7.659550000000000     -0.869090000000000     -0.154020000000000
H       7.089240000000000      0.775910000000000      0.242080000000000
H       7.230340000000000      0.253820000000000     -1.456070000000000
