16

Kr      0.188660000000000      0.323350000000000      0.243430000000000
C       2.217870000000000      0.944560000000000      0.425460000000000
C       2.860190000000000      2.127150000000000      0.149950000000000
C       3.305940000000000      0.101310000000000      0.901600000000000
N       4.219780000000000      2.084000000000000      0.400050000000000
Cl      2.266620000000000      3.641520000000000     -0.438110000000000
C       3.357030000000000     -1.227490000000000      1.358370000000000
C       4.525460000000000      0.836660000000000      0.868040000000000
H       4.857050000000000      2.853370000000000      0.259810000000000
C       4.572970000000000     -1.776290000000000      1.746400000000000
H       2.449780000000000     -1.833580000000000      1.372140000000000
C       5.752530000000000      0.292910000000000      1.257400000000000
C       5.761390000000000     -1.025090000000000      1.696190000000000
H       4.608320000000000     -2.811610000000000      2.094910000000000
H       6.671870000000000      0.882640000000000      1.218100000000000
H       6.704220000000000     -1.482400000000000      2.006480000000000
