9

Kr      0.333820000000000      0.079620000000000     -0.407500000000000
C       1.917060000000000      1.193520000000000     -1.196310000000000
O       3.188010000000000      0.659660000000000     -1.076300000000000
C       2.046290000000000      2.397210000000000     -1.846090000000000
C       4.062170000000000      1.509420000000000     -1.634480000000000
C       3.433580000000000      2.607450000000000     -2.136220000000000
H       1.214350000000000      3.056670000000000     -2.085200000000000
Cl      5.709080000000000      1.054390000000000     -1.588910000000000
H       3.906580000000000      3.446790000000000     -2.639780000000000
