18

Kr      0.122260000000000      0.000560000000000     -0.285150000000000
C       2.035640000000000      0.756340000000000     -0.644430000000000
O       3.086030000000000     -0.136250000000000     -0.485310000000000
C       2.546740000000000      1.971640000000000     -1.020680000000000
C       4.242510000000000      0.507710000000000     -0.756630000000000
C       3.977500000000000      1.843080000000000     -1.106680000000000
H       1.942220000000000      2.856260000000000     -1.208710000000000
C       5.512260000000000     -0.062060000000000     -0.694950000000000
C       5.061350000000000      2.676320000000000     -1.423430000000000
C       6.565800000000000      0.797720000000000     -1.017310000000000
C       5.694340000000000     -1.496170000000000     -0.302610000000000
C       6.343390000000000      2.138690000000000     -1.374170000000000
H       4.903350000000000      3.720910000000000     -1.701890000000000
H       7.588660000000000      0.411540000000000     -0.989510000000000
H       7.201930000000000      2.769760000000000     -1.617730000000000
H       5.139460000000000     -2.166550000000000     -0.979300000000000
H       5.305360000000000     -1.681400000000000      0.712490000000000
H       6.754650000000000     -1.784360000000000     -0.323180000000000
