29

Kr     -0.530230000000000      0.071170000000000     -0.446040000000000
C       1.273870000000000      0.955110000000000     -1.099160000000000
C       1.389350000000000      2.301410000000000     -1.504210000000000
N       2.378730000000000      0.198910000000000     -1.149380000000000
N       2.539200000000000      2.833670000000000     -1.905990000000000
H       0.516040000000000      2.961070000000000     -1.485820000000000
C       3.548780000000000      0.703270000000000     -1.544550000000000
C       3.595280000000000      2.055510000000000     -1.915290000000000
C       4.751670000000000     -0.186880000000000     -1.515740000000000
Cl      5.113060000000000      2.768720000000000     -2.418320000000000
H       5.388740000000000      0.018870000000000     -2.389960000000000
H       4.393880000000000     -1.226700000000000     -1.587230000000000
C       5.589790000000000     -0.023170000000000     -0.241300000000000
H       5.909230000000000      1.034670000000000     -0.187790000000000
C       6.849750000000000     -0.885200000000000     -0.305110000000000
H       7.444500000000000     -0.612380000000000     -1.192800000000000
H       6.548450000000000     -1.940820000000000     -0.445650000000000
C       7.694790000000000     -0.765830000000000      0.958360000000000
H       8.577330000000000     -1.422920000000000      0.891330000000000
H       8.082110000000000      0.266050000000000      1.036560000000000
C       6.881610000000000     -1.088630000000000      2.207320000000000
H       7.498230000000000     -0.962170000000000      3.112310000000000
H       6.584350000000000     -2.153530000000000      2.179440000000000
C       5.628770000000000     -0.223510000000000      2.284760000000000
H       5.924520000000000      0.831640000000000      2.427370000000000
H       5.024210000000000     -0.495320000000000      3.166330000000000
C       4.788620000000000     -0.342160000000000      1.019620000000000
H       4.399970000000000     -1.372500000000000      0.932940000000000
H       3.901110000000000      0.306260000000000      1.084460000000000
