19

Kr      0.094460000000000     -0.251690000000000     -0.236480000000000
C       2.092260000000000     -0.262990000000000     -0.895700000000000
S       3.405880000000000      0.251410000000000      0.095620000000000
C       2.614490000000000     -0.651160000000000     -2.126080000000000
C       4.629080000000000     -0.046820000000000     -1.108390000000000
C       4.041900000000000     -0.527830000000000     -2.243230000000000
C       1.782730000000000     -1.146630000000000     -3.169960000000000
C       6.079820000000000      0.233900000000000     -0.842220000000000
H       4.598530000000000     -0.789120000000000     -3.145090000000000
N       1.096830000000000     -1.566980000000000     -4.009570000000000
H       6.615190000000000     -0.046980000000000     -1.765840000000000
C       6.326870000000000      1.721280000000000     -0.585240000000000
H       7.400240000000000      1.925880000000000     -0.446380000000000
H       5.961460000000000      2.333390000000000     -1.422820000000000
H       5.799100000000000      2.053190000000000      0.323690000000000
C       6.623380000000000     -0.625040000000000      0.300110000000000
H       6.475240000000000     -1.695750000000000      0.095820000000000
H       7.699390000000000     -0.445540000000000      0.452280000000000
H       6.105620000000000     -0.390220000000000      1.244400000000000
