20

Kr      0.214010000000000     -0.040400000000000      0.260860000000000
C      -1.869830000000000      0.429280000000000      0.419810000000000
C      -2.939850000000000     -0.462980000000000      0.165800000000000
C      -2.269290000000000      1.716480000000000      0.818860000000000
C      -4.297870000000000     -0.060880000000000      0.279860000000000
N      -2.798100000000000     -1.790360000000000     -0.196840000000000
C      -3.604820000000000      2.115320000000000      0.938820000000000
H      -1.501480000000000      2.462430000000000      1.035820000000000
C      -4.646680000000000      1.237340000000000      0.665090000000000
S      -5.346690000000000     -1.394430000000000     -0.094800000000000
C      -3.923240000000000     -2.389980000000000     -0.365390000000000
H      -3.841480000000000      3.135010000000000      1.248830000000000
C      -6.079610000000000      1.653840000000000      0.776870000000000
C      -4.069150000000000     -3.813470000000000     -0.781520000000000
H      -3.127370000000000     -4.340540000000000     -0.580700000000000
H      -4.287480000000000     -3.888300000000000     -1.859120000000000
H      -4.884220000000000     -4.313650000000000     -0.238700000000000
F      -6.726940000000000      1.532190000000000     -0.392210000000000
F      -6.207020000000000      2.923600000000000      1.168510000000000
F      -6.752480000000000      0.897210000000000      1.657510000000000
