15

Kr     -0.447060000000000      0.016660000000000     -0.043020000000000
C      -2.231290000000000     -0.567830000000000     -1.060930000000000
C      -3.253260000000000      0.355870000000000     -1.330450000000000
C      -2.490950000000000     -1.888070000000000     -1.454080000000000
C      -4.436400000000000     -0.062270000000000     -1.943130000000000
H      -3.124280000000000      1.406490000000000     -1.059210000000000
N      -3.615250000000000     -2.303460000000000     -2.041810000000000
H      -1.739540000000000     -2.669150000000000     -1.282890000000000
C      -4.567330000000000     -1.416300000000000     -2.281120000000000
O      -5.485150000000000      0.742710000000000     -2.236970000000000
H      -5.491930000000000     -1.754800000000000     -2.763700000000000
C      -5.390150000000000      2.095780000000000     -1.906980000000000
H      -5.255360000000000      2.249380000000000     -0.820050000000000
H      -4.555080000000000      2.593880000000000     -2.432590000000000
H      -6.332670000000000      2.566400000000000     -2.216810000000000
