16

Kr      0.072270000000000     -0.040380000000000     -0.337330000000000
C       2.059330000000000      0.548200000000000     -0.760830000000000
C       2.426070000000000      1.795240000000000     -1.308920000000000
N       3.045380000000000     -0.317660000000000     -0.495760000000000
N       3.692100000000000      2.137610000000000     -1.525640000000000
H       1.659980000000000      2.535640000000000     -1.560020000000000
C       4.323650000000000     -0.011980000000000     -0.712680000000000
C       4.620220000000000      1.261110000000000     -1.220430000000000
C       5.356130000000000     -1.033100000000000     -0.338330000000000
Cl      6.286820000000000      1.739420000000000     -1.458570000000000
H       6.232660000000000     -0.937690000000000     -0.995870000000000
H       4.907170000000000     -2.024010000000000     -0.508680000000000
C       5.779050000000000     -0.895330000000000      1.121530000000000
H       6.245170000000000      0.085530000000000      1.300730000000000
H       6.506180000000000     -1.672900000000000      1.401840000000000
H       4.904960000000000     -0.983700000000000      1.785390000000000
