26

Kr      0.201840000000000     -0.061370000000000     -0.091940000000000
C      -1.784000000000000      0.575470000000000     -0.373070000000000
S      -2.274410000000000      1.617320000000000     -1.653370000000000
C      -2.920130000000000      0.236940000000000      0.356560000000000
C      -3.946320000000000      1.583580000000000     -1.219250000000000
C      -4.162730000000000      0.802560000000000     -0.117510000000000
C      -2.857390000000000     -0.617840000000000      1.492570000000000
H      -4.681850000000000      2.143740000000000     -1.793950000000000
C      -5.490200000000000      0.500840000000000      0.519320000000000
N      -2.821580000000000     -1.330270000000000      2.411310000000000
H      -5.341030000000000      0.546080000000000      1.615210000000000
C      -5.951260000000000     -0.928950000000000      0.193250000000000
H      -5.170660000000000     -1.648660000000000      0.484880000000000
H      -6.066580000000000     -1.012810000000000     -0.902690000000000
C      -7.267600000000000     -1.266650000000000      0.883310000000000
H      -7.590860000000000     -2.283540000000000      0.606510000000000
H      -7.105190000000000     -1.280450000000000      1.976080000000000
C      -8.355100000000000     -0.251820000000000      0.548300000000000
H      -9.283750000000000     -0.486710000000000      1.093800000000000
H      -8.599470000000000     -0.325140000000000     -0.527390000000000
C      -7.900160000000000      1.170200000000000      0.859170000000000
H      -7.765980000000000      1.278080000000000      1.950680000000000
H      -8.678330000000001      1.895340000000000      0.570110000000000
C      -6.586330000000000      1.502290000000000      0.160570000000000
H      -6.746640000000000      1.483710000000000     -0.932950000000000
H      -6.257400000000000      2.523360000000000      0.412510000000000
