18

Kr      0.099190000000000     -0.116460000000000      0.256250000000000
C      -2.009550000000000      0.159700000000000      0.412720000000000
C      -2.983270000000000     -0.756870000000000      0.045710000000000
C      -2.567140000000000      1.358030000000000      0.936560000000000
C      -4.357920000000000     -0.554040000000000      0.166650000000000
O      -2.804440000000000     -2.039410000000000     -0.439160000000000
C      -3.932450000000000      1.585740000000000      1.070750000000000
H      -1.885860000000000      2.155880000000000      1.240730000000000
C      -4.876630000000000      0.620060000000000      0.682980000000000
O      -5.034020000000000     -1.659150000000000     -0.245470000000000
C      -4.064780000000000     -2.464470000000000     -0.883630000000000
H      -4.290520000000000      2.532550000000000      1.478300000000000
C      -6.350940000000000      0.832570000000000      0.807320000000000
H      -4.145410000000000     -2.333720000000000     -1.984110000000000
H      -4.224490000000000     -3.519340000000000     -0.612140000000000
F      -6.636660000000000      2.029490000000000      1.332430000000000
F      -6.928700000000000     -0.088730000000000      1.590050000000000
F      -6.970150000000000      0.766340000000000     -0.379740000000000
