22

Kr      0.023360000000000     -0.133080000000000      0.241730000000000
C      -2.018450000000000      0.376550000000000      0.445850000000000
S      -3.257350000000000     -0.839720000000000      0.381740000000000
C      -2.628980000000000      1.595400000000000      0.626080000000000
C      -4.575820000000000      0.252860000000000      0.573550000000000
C      -4.061540000000000      1.536320000000000      0.696900000000000
H      -2.069340000000000      2.528220000000000      0.710070000000000
C      -6.021720000000000     -0.205490000000000      0.591760000000000
C      -4.862120000000000      2.702020000000000      0.864230000000000
N      -5.505760000000000      3.660520000000000      0.995600000000000
C      -6.780820000000000      0.463280000000000     -0.564290000000000
H      -7.831080000000000      0.129950000000000     -0.571100000000000
H      -6.774530000000000      1.558520000000000     -0.471530000000000
H      -6.327890000000000      0.197430000000000     -1.531640000000000
C      -6.107630000000000     -1.724910000000000      0.424080000000000
H      -5.583460000000000     -2.249720000000000      1.237850000000000
H      -7.160960000000000     -2.043950000000000      0.437770000000000
H      -5.666860000000000     -2.049350000000000     -0.531490000000000
C      -6.663520000000000      0.181950000000000      1.932360000000000
H      -7.712040000000000     -0.155560000000000      1.962110000000000
H      -6.125840000000000     -0.286750000000000      2.770470000000000
H      -6.654410000000000      1.270460000000000      2.084770000000000
