28

Kr     -0.498950000000000      0.179790000000000      0.174520000000000
C       1.626770000000000     -0.039690000000000      0.157400000000000
N       2.304310000000000      1.062240000000000     -0.175540000000000
C       2.419520000000000     -1.163160000000000      0.509190000000000
C       3.635170000000000      1.124450000000000     -0.202700000000000
C       3.808360000000000     -1.123580000000000      0.471550000000000
Br      1.634900000000000     -2.785640000000000      1.079780000000000
C       4.475950000000000      0.047560000000000      0.099920000000000
C       4.164010000000000      2.421680000000000     -0.553930000000000
H       4.377620000000000     -2.015630000000000      0.742200000000000
C       5.976750000000000      0.133570000000000      0.037910000000000
N       4.545920000000000      3.483010000000000     -0.824670000000000
H       6.235770000000000      1.165290000000000     -0.259630000000000
C       6.559040000000000     -0.805720000000000     -1.026510000000000
H       6.103980000000000     -0.581980000000000     -2.004630000000000
H       6.276740000000000     -1.846010000000000     -0.783020000000000
C       8.077579999999999     -0.696240000000000     -1.099280000000000
H       8.471399999999999     -1.402100000000000     -1.848280000000000
H       8.350030000000000      0.314700000000000     -1.452350000000000
C       8.722420000000000     -0.944170000000000      0.260010000000000
H       9.815880000000000     -0.824490000000000      0.194320000000000
H       8.542180000000000     -1.992530000000000      0.560570000000000
C       8.148690000000000     -0.013940000000000      1.323270000000000
H       8.423810000000000      1.028520000000000      1.081460000000000
H       8.594080000000000     -0.231110000000000      2.307560000000000
C       6.630220000000000     -0.122670000000000      1.401830000000000
H       6.353160000000000     -1.133270000000000      1.752360000000000
H       6.226110000000000      0.584830000000000      2.143530000000000
