21

Kr     -0.315390000000000     -0.346620000000000     -0.070240000000000
C       1.772290000000000     -0.582300000000000     -0.369470000000000
C       2.719440000000000      0.172490000000000      0.340520000000000
C       2.354890000000000     -1.463780000000000     -1.302580000000000
C       4.079800000000000      0.020940000000000      0.110120000000000
H       2.395810000000000      0.920960000000000      1.066210000000000
C       1.516170000000000     -2.299810000000000     -2.131460000000000
N       3.665120000000000     -1.618880000000000     -1.521390000000000
C       4.549610000000000     -0.905580000000000     -0.839490000000000
Br      5.278600000000000      1.118840000000000      1.088920000000000
N       0.850970000000000     -2.980210000000000     -2.794900000000000
C       6.012170000000000     -1.089110000000000     -1.177080000000000
H       6.589750000000000     -0.865070000000000     -0.265200000000000
C       6.316230000000000     -2.515150000000000     -1.614830000000000
H       7.387470000000000     -2.624490000000000     -1.842790000000000
H       6.054520000000000     -3.239490000000000     -0.828910000000000
H       5.734450000000000     -2.777240000000000     -2.509680000000000
C       6.414530000000000     -0.073300000000000     -2.249440000000000
H       6.227910000000000      0.958550000000000     -1.915190000000000
H       7.484550000000000     -0.164930000000000     -2.492820000000000
H       5.835650000000000     -0.245090000000000     -3.170510000000000
