16

Kr     -0.084960000000000     -0.280620000000000      0.157030000000000
C      -2.144580000000000     -0.328560000000000      0.694950000000000
C      -3.122630000000000      0.291640000000000     -0.091760000000000
C      -2.675980000000000     -0.942280000000000      1.839470000000000
C      -4.490840000000000      0.314400000000000      0.221460000000000
H      -2.817250000000000      0.835010000000000     -0.991780000000000
N      -3.952720000000000     -0.962150000000000      2.167410000000000
Cl     -1.623090000000000     -1.742890000000000      2.998970000000000
C      -4.821600000000000     -0.363580000000000      1.405410000000000
N      -5.385400000000000      1.014700000000000     -0.569690000000000
F      -6.098840000000000     -0.405410000000000      1.812850000000000
H      -4.947620000000000      1.338790000000000     -1.422900000000000
C      -6.762580000000000      0.620160000000000     -0.742220000000000
H      -7.232140000000000      1.299550000000000     -1.467520000000000
H      -7.318240000000000      0.701920000000000      0.200250000000000
H      -6.884260000000000     -0.416910000000000     -1.113940000000000
