12

Kr      0.210680000000000      0.310580000000000      0.192500000000000
C       2.308780000000000      0.609590000000000      0.078810000000000
C       2.943650000000000      1.827270000000000     -0.009590000000000
C       3.287920000000000     -0.438220000000000      0.105230000000000
S       4.667110000000000      1.712270000000000     -0.063270000000000
H       2.501210000000000      2.824000000000000     -0.044530000000000
C       4.592450000000000     -0.011930000000000      0.031280000000000
H       3.023600000000000     -1.496390000000000      0.167660000000000
C       5.813790000000000     -0.844750000000000      0.056680000000000
Cl      6.651630000000000     -0.841350000000000      1.665710000000000
H       6.569430000000000     -0.510610000000000     -0.666470000000000
H       5.557320000000000     -1.890850000000000     -0.153690000000000
