19

Kr      0.347750000000000      0.026300000000000     -0.328460000000000
C       2.208850000000000      0.986340000000000     -0.818900000000000
C       3.462940000000000      0.405530000000000     -0.684290000000000
C       2.302880000000000      2.323490000000000     -1.281600000000000
C       4.679800000000000      1.036450000000000     -0.952730000000000
O       3.754610000000000     -0.893090000000000     -0.309050000000000
C       3.502370000000000      2.979860000000000     -1.559590000000000
O       1.149630000000000      3.058580000000000     -1.428780000000000
C       4.737920000000000      2.338720000000000     -1.398320000000000
O       5.713900000000000      0.166230000000000     -0.738040000000000
C       5.132950000000000     -0.912950000000000     -0.046290000000000
H       3.458620000000000      4.019400000000000     -1.891550000000000
H       5.686840000000000      2.834440000000000     -1.605680000000000
H       5.308810000000000     -0.795650000000000      1.046510000000000
H       5.566990000000000     -1.860940000000000     -0.400290000000000
C       0.580100000000000      3.046560000000000     -2.708360000000000
H       1.175960000000000      3.644500000000000     -3.422710000000000
H       0.496580000000000      2.018420000000000     -3.102850000000000
H      -0.429400000000000      3.470480000000000     -2.617600000000000
