16

Kr      0.172480000000000      0.388260000000000      0.065820000000000
C       2.254890000000000      0.998400000000000     -0.098070000000000
C       2.659290000000000      2.186000000000000     -0.718460000000000
C       3.344590000000000      0.249570000000000      0.385570000000000
C       3.971670000000000      2.598980000000000     -0.907270000000000
F       1.726340000000000      3.041400000000000     -1.192630000000000
Cl      3.113790000000000     -1.267780000000000      1.235880000000000
C       4.694490000000000      0.613080000000000      0.225770000000000
C       5.002200000000000      1.798890000000000     -0.433700000000000
H       4.163210000000000      3.542070000000000     -1.422660000000000
O       5.706890000000000     -0.186610000000000      0.663950000000000
H       6.051210000000000      2.069500000000000     -0.566960000000000
C       6.062160000000000     -0.013380000000000      2.013420000000000
H       6.399110000000000      1.020510000000000      2.211670000000000
H       5.222320000000000     -0.250990000000000      2.688760000000000
H       6.890420000000000     -0.704370000000000      2.222410000000000
