21

Kr     -0.004800000000000      0.244780000000000      0.212300000000000
C       2.160390000000000      0.410520000000000      0.314460000000000
C       2.994210000000000      1.519220000000000      0.101910000000000
C       2.848290000000000     -0.776460000000000      0.658650000000000
Cl      2.353770000000000      3.100500000000000     -0.279030000000000
C       4.395440000000000      1.433000000000000      0.197040000000000
C       4.233570000000000     -0.895110000000000      0.765120000000000
H       2.263730000000000     -1.682680000000000      0.833390000000000
C       5.015680000000000      0.234960000000000      0.522550000000000
Cl      5.404320000000000      2.818720000000000     -0.085360000000000
C       4.865820000000000     -2.220820000000000      1.133840000000000
H       6.105220000000000      0.208150000000000      0.584770000000000
H       4.036990000000000     -2.943000000000000      1.233620000000000
C       5.796970000000000     -2.733230000000000      0.036090000000000
H       6.198510000000000     -3.726600000000000      0.292420000000000
H       5.270790000000000     -2.813960000000000     -0.926900000000000
H       6.654030000000000     -2.056230000000000     -0.109430000000000
C       5.581680000000000     -2.146220000000000      2.481760000000000
H       4.898640000000000     -1.806930000000000      3.274810000000000
H       5.984120000000000     -3.130300000000000      2.770830000000000
H       6.425610000000000     -1.438570000000000      2.444090000000000
