23

Kr      0.112120000000000      0.330790000000000     -0.010680000000000
C      -1.924850000000000      0.753730000000000     -0.445810000000000
C      -2.944170000000000     -0.144780000000000     -0.093120000000000
C      -2.351730000000000      1.927110000000000     -1.111370000000000
C      -4.290940000000000      0.097990000000000     -0.369470000000000
H      -2.690420000000000     -1.091600000000000      0.382840000000000
C      -1.400320000000000      2.895270000000000     -1.569290000000000
C      -3.714980000000000      2.193120000000000     -1.382640000000000
C      -5.353200000000000     -0.878830000000000     -0.013420000000000
C      -4.685390000000000      1.277540000000000     -1.008520000000000
N      -0.645250000000000      3.698810000000000     -1.933270000000000
O      -4.076090000000000      3.323550000000000     -2.046030000000000
O      -6.533860000000000     -0.707550000000000     -0.190630000000000
O      -4.861620000000000     -2.001920000000000      0.534880000000000
H      -5.737170000000000      1.466220000000000     -1.226230000000000
C      -5.818580000000000     -2.980260000000000      0.886490000000000
H      -5.257920000000000     -3.822580000000000      1.309140000000000
H      -6.388820000000000     -3.308320000000000      0.004580000000000
H      -6.531180000000000     -2.586690000000000      1.626930000000000
C      -4.141490000000000      4.494800000000000     -1.266020000000000
H      -4.884130000000000      4.392260000000000     -0.454600000000000
H      -3.161790000000000      4.751710000000000     -0.827770000000000
H      -4.450330000000000      5.309050000000000     -1.934540000000000
