19

Kr      0.049360000000000     -0.300240000000000     -0.161350000000000
C       2.125250000000000     -0.412210000000000     -0.590950000000000
C       3.067130000000000      0.188950000000000      0.233340000000000
C       2.645180000000000     -1.075440000000000     -1.742590000000000
C       4.462080000000000      0.185210000000000      0.011350000000000
H       2.722680000000000      0.760190000000000      1.100810000000000
C       1.780170000000000     -1.701860000000000     -2.693200000000000
C       4.016160000000000     -1.128990000000000     -1.984030000000000
C       4.943580000000000     -0.520280000000000     -1.125670000000000
N       5.246760000000000      0.856520000000000      0.899240000000000
N       1.099670000000000     -2.221940000000000     -3.478560000000000
H       4.392150000000000     -1.658760000000000     -2.861390000000000
C       6.326130000000000     -0.687440000000000     -1.437010000000000
N       7.437300000000000     -0.870090000000000     -1.722500000000000
H       4.725770000000000      1.342530000000000      1.615190000000000
C       6.625530000000000      1.237940000000000      0.738890000000000
H       6.891560000000000      1.917440000000000      1.559430000000000
H       6.807740000000000      1.766170000000000     -0.212430000000000
H       7.310170000000000      0.377800000000000      0.778000000000000
