24

Kr     -0.203740000000000     -0.388380000000000     -0.061820000000000
C       1.838820000000000     -0.810850000000000     -0.489220000000000
C       2.875350000000000     -0.010570000000000     -0.006050000000000
C       2.276800000000000     -1.891430000000000     -1.292950000000000
C       4.238410000000000     -0.232220000000000     -0.256310000000000
H       2.636290000000000      0.872060000000000      0.587010000000000
C       1.318790000000000     -2.782590000000000     -1.885980000000000
C       3.623530000000000     -2.158490000000000     -1.568350000000000
C       5.243150000000000      0.690680000000000      0.287070000000000
C       4.647170000000000     -1.342620000000000     -1.053880000000000
N       0.569060000000000     -3.522810000000000     -2.373790000000000
H       3.872210000000000     -3.013030000000000     -2.197370000000000
O       6.450160000000000      0.592530000000000      0.144150000000000
O       4.714970000000000      1.708000000000000      0.985720000000000
N       5.955030000000000     -1.597840000000000     -1.311320000000000
C       5.636600000000000      2.633960000000000      1.521180000000000
H       5.041190000000000      3.386420000000000      2.052230000000000
H       6.226440000000000      3.111340000000000      0.724410000000000
H       6.334720000000000      2.141960000000000      2.215040000000000
H       6.611110000000000     -0.933830000000000     -0.909510000000000
C       6.409810000000000     -2.675220000000000     -2.132200000000000
H       7.506370000000000     -2.649560000000000     -2.181160000000000
H       6.026310000000000     -2.612310000000000     -3.167960000000000
H       6.116530000000000     -3.663840000000000     -1.732540000000000
