15

Kr      0.242230000000000     -0.122600000000000      0.269330000000000
C      -1.851270000000000      0.252770000000000      0.438320000000000
C      -2.822540000000000     -0.733590000000000      0.215950000000000
C      -2.343700000000000      1.528320000000000      0.751310000000000
C      -4.194690000000000     -0.485960000000000      0.279420000000000
H      -2.530860000000000     -1.756920000000000     -0.021050000000000
C      -3.708190000000000      1.805550000000000      0.804710000000000
H      -1.655580000000000      2.355610000000000      0.937010000000000
C      -4.657050000000000      0.805020000000000      0.569940000000000
C      -5.160910000000000     -1.613850000000000      0.022680000000000
Cl     -4.212240000000000      3.430270000000000      1.131280000000000
Cl     -6.341480000000000      1.174180000000000      0.637320000000000
F      -5.958070000000000     -1.845890000000000      1.069110000000000
F      -4.517010000000000     -2.764090000000000     -0.231350000000000
F      -5.947030000000000     -1.376690000000000     -1.031530000000000
