21

Kr     -0.072150000000000      0.232050000000000      0.164380000000000
C       2.066230000000000      0.356690000000000      0.046170000000000
N       2.520770000000000      1.592820000000000     -0.189300000000000
C       3.042980000000000     -0.656940000000000      0.233560000000000
C       3.819920000000000      1.864800000000000     -0.269360000000000
C       4.423110000000000     -0.418510000000000      0.126900000000000
Br      2.473790000000000     -2.414360000000000      0.666150000000000
C       4.811050000000000      0.899020000000000     -0.138560000000000
C       4.146280000000000      3.253410000000000     -0.490620000000000
C       5.468480000000000     -1.494320000000000      0.334590000000000
H       5.862670000000000      1.170760000000000     -0.231410000000000
N       4.376370000000000      4.378000000000000     -0.653950000000000
H       5.017290000000000     -2.438350000000000     -0.010050000000000
C       6.744490000000000     -1.268790000000000     -0.468500000000000
H       7.398120000000000     -2.149950000000000     -0.384330000000000
H       6.530640000000000     -1.105520000000000     -1.535540000000000
H       7.321780000000000     -0.406110000000000     -0.099830000000000
C       5.770620000000000     -1.644450000000000      1.827690000000000
H       4.856920000000000     -1.864700000000000      2.398190000000000
H       6.485410000000000     -2.464630000000000      1.997270000000000
H       6.211480000000000     -0.718030000000000      2.229140000000000
