27

Kr      0.371630000000000     -0.163670000000000      0.221810000000000
C      -1.767230000000000      0.114820000000000      0.426800000000000
C      -2.832400000000000     -0.681220000000000      0.004240000000000
C      -2.177090000000000      1.310710000000000      1.097290000000000
Cl     -2.633390000000000     -2.231180000000000     -0.795750000000000
C      -4.168510000000000     -0.300280000000000      0.203150000000000
N      -3.418710000000000      1.732030000000000      1.322350000000000
H      -1.397690000000000      1.984420000000000      1.465930000000000
C      -4.366760000000000      0.930070000000000      0.868590000000000
C      -5.464980000000000     -0.830170000000000     -0.091150000000000
N      -5.720850000000000      1.129450000000000      0.965080000000000
C      -6.391810000000000      0.071350000000000      0.387800000000000
H      -5.678750000000000     -1.766040000000000     -0.599000000000000
H      -6.137560000000000      1.937550000000000      1.404080000000000
C      -7.898950000000000      0.038100000000000      0.355460000000000
H      -9.472270000000000     -1.271540000000000     -0.361910000000000
C      -8.372290000000000     -1.239840000000000     -0.335090000000000
H      -8.004460000000000     -1.291790000000000     -1.370650000000000
H      -8.018290000000000     -2.134490000000000      0.198460000000000
C      -8.444450000000000      0.068460000000000      1.791050000000000
H      -8.137540000000000      0.980560000000000      2.326330000000000
H      -9.545730000000001      0.041800000000000      1.785930000000000
H      -8.079340000000000     -0.795590000000000      2.366110000000000
C      -8.422549999999999      1.255840000000000     -0.420710000000000
H      -9.523550000000000      1.246290000000000     -0.456750000000000
H      -8.114160000000000      2.203170000000000      0.048350000000000
H      -8.041650000000001      1.254370000000000     -1.452940000000000
