26

Kr     -0.279050000000000      0.347410000000000      0.317360000000000
C       1.691090000000000      1.098130000000000      0.435640000000000
C       2.170050000000000      2.344760000000000      0.064680000000000
C       2.856070000000000      0.364250000000000      0.841670000000000
N       3.535730000000000      2.374150000000000      0.233430000000000
H       1.657350000000000      3.225170000000000     -0.320370000000000
C       3.974370000000000      1.166770000000000      0.708220000000000
H       2.861370000000000     -0.672070000000000      1.173470000000000
H       4.130410000000000      3.168770000000000      0.048850000000000
C       5.428250000000000      0.888410000000000      0.926250000000000
H       5.845710000000000      1.680620000000000      1.582090000000000
C       6.223940000000000      0.923360000000000     -0.388880000000000
H       6.090570000000000      1.897420000000000     -0.888310000000000
H       5.789810000000000      0.170240000000000     -1.070550000000000
C       7.704970000000000      0.636050000000000     -0.171940000000000
H       8.239369999999999      0.639450000000000     -1.136180000000000
H       8.148450000000000      1.449660000000000      0.431200000000000
C       7.913970000000000     -0.690730000000000      0.549780000000000
H       8.986640000000000     -0.864590000000000      0.735330000000000
H       7.573370000000000     -1.514000000000000     -0.104380000000000
C       7.129880000000000     -0.737080000000000      1.856920000000000
H       7.546070000000000      0.011700000000000      2.555620000000000
H       7.255220000000000     -1.717290000000000      2.345120000000000
C       5.650400000000000     -0.447980000000000      1.633390000000000
H       5.210140000000000     -1.249360000000000      1.013260000000000
H       5.099500000000000     -0.458400000000000      2.586840000000000
