17

Kr     -0.185020000000000     -0.141510000000000      0.278150000000000
C      -2.275940000000000      0.196420000000000      0.612840000000000
C      -3.443590000000000     -0.455410000000000      0.149910000000000
C      -2.780050000000000      1.226570000000000      1.432450000000000
C      -4.585090000000000      0.156390000000000      0.668190000000000
Cl     -3.597420000000000     -1.823940000000000     -0.895460000000000
N      -4.148430000000000      1.193650000000000      1.463460000000000
C      -2.040670000000000      2.243240000000000      2.236840000000000
C      -5.946120000000000     -0.149510000000000      0.478480000000000
C      -5.019590000000000      2.076320000000000      2.197010000000000
H      -1.217330000000000      2.670490000000000      1.648120000000000
H      -1.608410000000000      1.797020000000000      3.148660000000000
H      -2.691170000000000      3.069790000000000      2.554320000000000
N      -7.077110000000000     -0.386610000000000      0.337870000000000
H      -6.059120000000000      1.766990000000000      2.030110000000000
H      -4.911680000000000      3.118290000000000      1.858310000000000
H      -4.813670000000000      2.032760000000000      3.277170000000000
