20

Kr      0.237910000000000     -0.073290000000000      0.273990000000000
C      -1.873560000000000      0.306660000000000      0.443700000000000
C      -2.960690000000000     -0.519230000000000      0.097450000000000
C      -2.275650000000000      1.545910000000000      0.981660000000000
C      -4.326590000000000     -0.163460000000000      0.263820000000000
S      -2.935230000000000     -2.133600000000000     -0.586790000000000
C      -3.609270000000000      1.931190000000000      1.159380000000000
H      -1.507710000000000      2.271010000000000      1.258650000000000
N      -5.251430000000000     -1.103330000000000     -0.123990000000000
C      -4.652780000000000      1.089890000000000      0.804990000000000
C      -4.685310000000000     -2.169060000000000     -0.577910000000000
H      -3.835290000000000      2.911800000000000      1.581820000000000
C      -6.086470000000000      1.490640000000000      0.988430000000000
C      -5.423490000000000     -3.363820000000000     -1.073810000000000
H      -5.174010000000000     -3.580590000000000     -2.124080000000000
H      -6.499630000000000     -3.164880000000000     -0.994150000000000
H      -5.179080000000000     -4.259000000000000     -0.480930000000000
F      -6.758980000000000      1.509110000000000     -0.167050000000000
F      -6.185880000000000      2.721670000000000      1.514320000000000
F      -6.742300000000000      0.665500000000000      1.811280000000000
