28
Properties=species:S:1:pos:R:3 RH_Sub25.log=T Energy:=T -231622.8228065=T pbc="F F F"
N       -0.85132000       1.97986000      -0.45884000
H       -0.46658000       1.60656000      -1.32388000
H       -0.94383000       2.98446000      -0.58651000
C        0.00870000       1.68075000       0.66672000
H        0.96878000       2.23854000       0.66815000
H       -0.51308000       1.99379000       1.58827000
C       -2.73204000      -0.68045000      -0.74732000
H       -3.18970000      -1.15202000      -1.62159000
C       -1.64590000      -1.19539000      -0.17063000
H       -1.21721000      -2.11048000      -0.59916000
C        0.32495000       0.19031000       0.80464000
H        0.93017000       0.11823000       1.72807000
C        1.20300000      -0.37612000      -0.32926000
C       -0.95698000      -0.64592000       1.04592000
H       -0.70261000      -1.49541000       1.70187000
H       -1.66793000      -0.02461000       1.61272000
H       -3.17863000       0.24777000      -0.37989000
H        0.56906000      -0.46455000      -1.23137000
C        2.38209000       0.52634000      -0.68024000
H        3.02026000       0.05024000      -1.44069000
H        2.06057000       1.49799000      -1.08417000
H        3.01154000       0.72304000       0.20398000
C        1.70606000      -1.77505000       0.01759000
H        0.88663000      -2.47714000       0.22889000
H        2.29923000      -2.19865000      -0.80755000
H        2.35329000      -1.74353000       0.91023000
Xe      -2.18897000      -0.93792000      -0.45897500
Xe      -0.65043930      -3.32031974      -1.16571916
