21
Properties=species:S:1:pos:R:3 RH_Sub12_O.log=T Energy:=T -257292.2024498=T pbc="F F F"
O       -1.89376000       1.19370000       0.33531000
H       -2.64839000       1.68321000       0.67534000
C       -2.36296000       0.00264000      -0.25364000
H       -2.93061000      -0.60827000       0.47908000
H       -3.05489000       0.22364000      -1.09060000
C        1.57274000       0.31766000       0.09991000
F        2.54196000      -0.51024000      -0.32922000
C        1.55067000       1.58043000      -0.31791000
H        2.31892000       1.95900000      -0.99418000
C       -1.20128000      -0.81206000      -0.78729000
H       -0.63199000      -0.18536000      -1.49487000
H       -1.62802000      -1.63825000      -1.37988000
C        0.60454000      -0.36671000       1.00001000
H       -0.03303000       0.38967000       1.47336000
H        1.18042000      -0.87896000       1.78952000
C       -0.26197000      -1.39600000       0.26397000
H       -0.85113000      -1.95851000       1.00882000
H        0.40227000      -2.13154000      -0.21899000
H        0.73848000       2.23224000       0.00265000
Xe       1.56170500       0.94904500      -0.10900000
Xe       3.34279095       2.46353215      -1.89546631
