26
Properties=species:S:1:pos:R:3 RH_Sub34.log=T Energy:=T -254391.1163191=T pbc="F F F"
N       -0.10140000       2.35535000       0.07936000
H        0.07306000       2.38613000       1.08170000
H       -0.39206000       3.29464000      -0.17927000
C       -1.15319000       1.40126000      -0.22827000
H       -1.99502000       1.42957000       0.49460000
H       -1.58281000       1.65270000      -1.21068000
C        2.36440000      -0.89883000       0.00857000
H        2.39094000      -1.99645000       0.04629000
C        3.04738000      -0.26943000      -0.94891000
H        3.64010000      -0.81825000      -1.68564000
C       -0.63599000      -0.03460000      -0.34170000
H        0.11813000      -0.04453000      -1.14458000
O       -1.65855000      -0.88724000      -0.82027000
C        1.52320000      -0.22591000       1.04747000
H        1.66628000       0.86145000       0.97450000
H        1.87089000      -0.53891000       2.04775000
C        0.03337000      -0.57395000       0.92651000
H       -0.50079000      -0.22840000       1.82956000
H       -0.06960000      -1.67271000       0.90760000
H        3.02855000       0.82240000      -1.03043000
C       -2.71259000      -1.18055000       0.04525000
H       -2.38023000      -1.67679000       0.97679000
H       -3.30850000      -0.29269000       0.32908000
H       -3.38014000      -1.87573000      -0.48409000
Xe       2.70589000      -0.58413000      -0.47017000
Xe       3.00357328       2.27063864      -1.13856077
