17

C  -1.620110 1.014440 0.722590
O  -2.764530 0.292880 0.401250
C  -2.004620 2.219360 1.253120
C  -3.841080 1.025470 0.722900
C  -3.441710 2.258760 1.272310
H  -1.313620 2.990030 1.587380
C  -5.172150 0.657270 0.550190
C  -4.435980 3.163340 1.669660
C  -6.143130 1.575290 0.954620
C  -5.520790 -0.668350 -0.049470
C  -5.773290 2.809690 1.506300
H  -4.167970 4.130880 2.100570
H  -7.196880 1.319970 0.835170
H  -6.556590 3.506600 1.812740
F  -5.021190 -0.808240 -1.288050
F  -6.841380 -0.850600 -0.138270
F  -5.031610 -1.692770 0.668980
