22

C  -2.104580 0.180590 -0.657640
C  -3.044940 1.196400 -0.365150
C  -2.691870 -1.059730 -0.983230
C  -2.662470 2.622480 -0.178410
C  -4.430140 0.965350 -0.323190
C  -4.073090 -1.301630 -0.985410
H  -2.055370 -1.920040 -1.192110
O  -1.923450 3.251560 -0.896170
O  -3.308530 3.188610 0.853020
C  -4.966840 -0.272870 -0.635780
H  -5.116290 1.768890 -0.052120
C  -4.550160 -2.622040 -1.253860
C  -3.118620 4.579580 1.017690
O  -6.306840 -0.465830 -0.550400
N  -4.918780 -3.703150 -1.459970
H  -2.075060 4.803520 1.282370
H  -3.785330 4.887880 1.831830
H  -3.365870 5.123890 0.094090
C  -6.992720 -0.671710 -1.765550
H  -6.865860 0.191110 -2.443190
H  -6.660710 -1.587650 -2.281570
H  -8.056450 -0.778010 -1.515640
