20

C  2.110360 0.767640 0.375490
C  2.791670 1.841020 -0.129700
C  3.157400 -0.066000 0.922600
O  4.138430 1.729780 0.064180
H  2.488280 2.741700 -0.658910
C  4.353020 0.557390 0.705510
H  3.015170 -1.034370 1.396700
C  5.782560 0.202380 0.996500
C  6.559400 0.128840 -0.325990
H  7.620010 -0.108130 -0.142720
H  6.139080 -0.649360 -0.981780
H  6.505460 1.087560 -0.862160
C  6.403410 1.279240 1.896890
H  5.872940 1.335510 2.859800
H  7.463790 1.055940 2.097850
H  6.342050 2.267590 1.418130
C  5.832130 -1.153480 1.698590
H  6.874710 -1.431460 1.917940
H  5.277280 -1.130350 2.648720
H  5.393530 -1.943170 1.069250
