17

C  1.956050 -0.615000 -0.607550
C  3.017690 0.150430 -0.118770
C  2.371750 -1.634940 -1.466120
C  4.366090 -0.096950 -0.450710
H  2.805790 0.995130 0.541760
O  1.539580 -2.518660 -2.089260
C  3.703280 -1.920930 -1.826860
C  4.733980 -1.130070 -1.302350
C  5.403260 0.811530 0.133700
C  2.314090 -3.347060 -2.827820
C  3.634490 -3.049570 -2.718470
H  5.780580 -1.311650 -1.549100
H  1.782520 -4.109700 -3.392700
H  4.456810 -3.561440 -3.213610
F  5.286620 2.070350 -0.323830
F  6.651490 0.415550 -0.140360
F  5.301440 0.892240 1.470580
