23

C  1.841160 0.680230 -0.615250
S  3.182050 0.286970 0.420220
C  2.309180 1.504390 -1.619670
C  4.343450 1.189170 -0.498760
C  3.705510 1.787110 -1.557840
H  1.648210 1.913710 -2.386360
C  5.791260 1.238830 -0.133020
H  4.231860 2.422650 -2.274670
H  5.899760 1.304110 0.963820
H  6.209250 2.176280 -0.537800
C  6.677770 0.069420 -0.633770
C  6.597480 -0.034970 -2.156120
H  7.243100 -0.847320 -2.526820
H  5.566290 -0.235610 -2.483610
H  6.925200 0.901440 -2.636500
C  8.118680 0.366700 -0.214880
H  8.204360 0.453910 0.880450
H  8.799950 -0.434770 -0.542630
H  8.474840 1.311780 -0.655700
C  6.234470 -1.253370 -0.007310
H  6.893980 -2.074780 -0.331300
H  6.272680 -1.204470 1.093460
H  5.203220 -1.507550 -0.294720
