16

C  -1.609980 0.885390 -0.627410
C  -1.867470 2.076930 -1.357530
C  -2.695290 0.099900 -0.226850
C  -3.208160 2.440280 -1.569100
N  -0.811030 2.856980 -1.801470
C  -4.010790 0.476390 -0.492800
H  -2.514430 -0.845460 0.287170
F  -3.494490 3.603650 -2.186770
C  -4.282590 1.662820 -1.161260
I  -5.596600 -0.774420 0.121180
H  -5.293940 2.009400 -1.375070
H  0.052790 2.329550 -1.725120
C  -0.868990 3.699890 -2.969990
H  0.154840 4.022740 -3.208550
H  -1.473050 4.600600 -2.797110
H  -1.278900 3.189080 -3.862550
