27

C  1.649660 1.203910 -0.289320
C  1.872590 2.477730 -0.820690
C  2.854300 0.522400 -0.021230
C  3.113310 3.024880 -1.109790
F  0.822520 3.284620 -1.089560
Cl  2.792310 -1.081180 0.717560
C  4.153360 0.999580 -0.293390
C  4.251670 2.275210 -0.852230
H  3.167370 4.029660 -1.533200
C  5.392480 0.196720 0.033330
H  5.232150 2.692840 -1.084630
H  5.142200 -0.864830 -0.135200
C  5.773690 0.332100 1.514950
H  4.903190 0.084990 2.141280
H  6.020810 1.390460 1.716170
C  6.957830 -0.558230 1.873330
H  7.235090 -0.416960 2.930990
H  6.651510 -1.615250 1.772040
C  8.156590 -0.294080 0.968830
H  8.980770 -0.986270 1.207530
H  8.539750 0.724200 1.164910
C  7.776530 -0.405180 -0.504030
H  7.499930 -1.450750 -0.731120
H  8.642740 -0.167960 -1.143190
C  6.603730 0.507850 -0.846310
H  6.921160 1.555050 -0.695460
H  6.331040 0.411900 -1.910020
