17

C  -1.778850 0.120790 0.421590
C  -2.842370 -0.678180 0.011610
C  -2.188690 1.328390 1.078870
Cl  -2.651130 -2.234310 -0.768600
C  -4.179880 -0.289090 0.210730
N  -3.425240 1.756350 1.302890
H  -1.405730 2.004310 1.436000
C  -4.377660 0.950050 0.861350
C  -5.471190 -0.826980 -0.076090
N  -5.728430 1.158190 0.961670
C  -6.380400 0.088340 0.398460
H  -5.704810 -1.765840 -0.570210
H  -6.153690 1.965660 1.396140
C  -7.864630 0.037370 0.352800
F  -8.378270 1.051190 -0.360930
F  -8.402730 0.135640 1.578580
F  -8.289670 -1.099370 -0.191090
