26

C  1.675190 0.751320 0.293390
C  2.737790 -0.149130 0.502950
N  1.986650 2.048620 0.124180
C  4.050350 0.317590 0.493050
H  2.530740 -1.212400 0.639780
C  3.265930 2.402540 0.148470
N  4.320360 1.618730 0.311400
C  5.227780 -0.607980 0.635260
C  3.511040 3.823680 -0.031370
N  3.662530 4.962760 -0.176090
H  4.835620 -1.607000 0.896690
C  6.180500 -0.151610 1.743940
H  5.641440 -0.117340 2.704840
H  6.489470 0.883550 1.521360
C  7.402330 -1.056540 1.846180
H  8.082810 -0.683660 2.628820
H  7.084690 -2.065600 2.167410
C  8.133130 -1.163910 0.512310
H  8.993360 -1.847680 0.597860
H  8.545450 -0.174080 0.245710
C  7.193400 -1.626670 -0.595550
H  6.865070 -2.661100 -0.384930
H  7.722550 -1.660990 -1.561800
C  5.970710 -0.723870 -0.703000
H  6.274560 0.291540 -1.011530
H  5.279790 -1.094650 -1.478510
