17

C  -2.166140 0.779540 -0.616610
C  -2.754880 2.071470 -0.623780
C  -3.071750 -0.290350 -0.682540
N  -1.957820 3.216470 -0.652780
C  -4.148970 2.231120 -0.589190
C  -4.455660 -0.132340 -0.663420
H  -2.697390 -1.313960 -0.735730
H  -1.125340 3.074710 -1.213000
H  -2.455710 4.049410 -0.943360
C  -5.017340 1.143870 -0.591600
H  -4.594560 3.230000 -0.566450
Cl  -5.482120 -1.543790 -0.655730
O  -6.359720 1.357130 -0.517010
C  -7.059080 1.204420 -1.728070
H  -6.699810 1.918820 -2.491210
H  -6.968760 0.180660 -2.128600
H  -8.117820 1.410250 -1.518080
