27

C  -1.957100 0.118330 -0.693470
C  -2.926760 1.101910 -0.393000
C  -2.513520 -1.131670 -1.037440
C  -2.585790 2.537590 -0.210960
C  -4.303930 0.822400 -0.334320
C  -3.887500 -1.400780 -1.034970
H  -1.856060 -1.969930 -1.269580
O  -1.857670 3.183800 -0.925270
O  -3.256370 3.095200 0.811440
C  -4.827290 -0.423410 -0.650240
H  -4.977640 1.627680 -0.038650
C  -4.322130 -2.723020 -1.375550
C  -3.103390 4.491540 0.965610
C  -6.310260 -0.722680 -0.638720
N  -4.667550 -3.799510 -1.639110
H  -3.359290 5.022320 0.036460
H  -2.067330 4.744710 1.233830
H  -3.782150 4.789430 1.773770
H  -6.417720 -1.783420 -0.353090
C  -7.087140 0.109020 0.374850
H  -8.131090 -0.235040 0.428670
H  -6.648900 0.033150 1.381460
H  -7.112160 1.174430 0.095720
C  -6.895560 -0.571410 -2.045390
H  -6.377730 -1.221200 -2.766010
H  -7.963900 -0.838860 -2.055520
H  -6.798390 0.468930 -2.395100
