27

C  1.497350 -0.683120 -1.000540
C  2.641210 -0.219960 -0.328030
C  1.768650 -1.364070 -2.192900
C  3.962020 -0.407340 -0.748660
H  2.509040 0.365180 0.586390
C  3.060960 -1.595840 -2.667990
Cl  0.473040 -1.964540 -3.211940
C  4.134820 -1.119080 -1.935480
C  5.112370 0.157740 0.043770
H  3.237140 -2.135070 -3.599190
F  5.373640 -1.350670 -2.406020
H  4.662450 0.674730 0.911910
C  5.909930 1.208940 -0.739320
H  5.226080 1.997420 -1.092420
H  6.336880 0.735280 -1.638830
C  7.028670 1.806450 0.106100
H  7.604820 2.535800 -0.486500
H  6.586520 2.371850 0.947320
C  7.949370 0.724450 0.660310
H  8.732240 1.171460 1.294840
H  8.472240 0.231340 -0.179140
C  7.164070 -0.323540 1.441900
H  6.729110 0.148800 2.342230
H  7.837290 -1.117790 1.804390
C  6.043880 -0.926250 0.601350
H  6.475050 -1.493200 -0.240510
H  5.454850 -1.643850 1.195740
