23

C  2.011800 0.811650 0.053890
C  2.379230 2.062810 -0.465230
C  3.087910 -0.014420 0.447420
C  3.704310 2.430550 -0.588880
H  1.642010 2.794620 -0.796090
C  4.457650 0.326030 0.322110
Cl  2.686230 -1.588500 1.142230
C  4.734560 1.588990 -0.215480
F  4.005270 3.637970 -1.089630
C  5.643740 -0.577940 0.717980
H  5.753630 1.942510 -0.352300
C  5.626720 -1.879160 -0.101570
H  6.500250 -2.496850 0.161960
H  4.724110 -2.475150 0.074840
H  5.683380 -1.652540 -1.177570
C  6.990000 0.096830 0.424310
H  7.121630 1.029600 0.993080
H  7.801390 -0.585390 0.719480
H  7.119320 0.319200 -0.645630
C  5.624160 -0.865970 2.228060
H  6.487350 -1.495000 2.499190
H  5.698850 0.074940 2.795190
H  4.711430 -1.383640 2.543850
