20

C  2.136690 0.118040 -1.281440
C  3.239150 0.853420 -0.792860
C  2.395480 -0.670690 -2.441210
C  4.509290 0.636880 -1.358220
C  3.152850 1.932860 0.248160
N  3.609970 -0.847790 -2.971740
C  1.300140 -1.314950 -3.249370
C  4.650640 -0.237260 -2.422850
O  5.606350 1.319590 -0.893700
H  3.804060 2.770210 -0.042010
H  3.508610 1.597830 1.236460
H  2.127460 2.299850 0.353140
H  0.692640 -0.537780 -3.743450
H  0.604640 -1.917700 -2.655230
H  1.758370 -1.939210 -4.027060
H  5.642950 -0.407630 -2.858750
C  6.262050 0.698360 0.176980
H  5.599550 0.570630 1.053990
H  6.650200 -0.297890 -0.105410
H  7.107910 1.338340 0.466410
