16

C  -1.975090 0.571190 -0.632860
C  -2.669570 1.808740 -0.633830
C  -2.785230 -0.570510 -0.727370
N  -1.972440 3.015630 -0.647370
C  -4.070620 1.847120 -0.600160
C  -4.177110 -0.533340 -0.718280
H  -2.322770 -1.556430 -0.795300
H  -1.123940 2.949950 -1.197340
H  -2.534340 3.808680 -0.932750
C  -4.843910 0.689330 -0.626440
H  -4.580180 2.812640 -0.564670
Cl  -5.040780 -2.045420 -0.786810
C  -6.342320 0.787250 -0.574160
F  -6.851790 0.153350 0.487550
F  -6.922920 0.264870 -1.659210
F  -6.750460 2.062480 -0.494310
