19

C  -2.063180 0.669280 0.579700
C  -3.180530 0.015730 0.028420
C  -2.435540 1.779560 1.356340
C  -4.504170 0.414640 0.215580
H  -3.024850 -0.864060 -0.595940
N  -3.671160 2.204980 1.563420
Cl  -1.230290 2.766050 2.169820
C  -4.653020 1.548110 1.014860
C  -5.704130 -0.313460 -0.344340
F  -5.885300 2.012100 1.250710
H  -6.404280 0.461100 -0.703030
C  -5.363960 -1.219490 -1.521430
H  -6.282920 -1.638120 -1.958850
H  -4.824870 -0.676440 -2.312590
H  -4.735490 -2.069680 -1.209360
C  -6.417260 -1.094550 0.762650
H  -6.711450 -0.430070 1.587460
H  -7.325630 -1.585190 0.378180
H  -5.753800 -1.873370 1.172500
