27

C  -1.686940 -0.322370 0.052670
C  -2.425270 0.191860 -1.027500
C  -2.475920 -0.820070 1.097780
C  -3.809280 0.196100 -1.042060
H  -1.924630 0.642450 -1.887020
C  -3.872320 -0.823340 1.085590
Cl  -1.736160 -1.473540 2.553330
F  -4.436980 0.724040 -2.109760
C  -4.585080 -0.308220 0.002150
H  -4.402290 -1.235540 1.944980
C  -6.089760 -0.231640 -0.065490
H  -6.375330 -0.475700 -1.105550
C  -6.583300 1.198940 0.202250
H  -6.081210 1.894660 -0.487250
H  -6.275110 1.487960 1.223260
C  -8.097420 1.309460 0.065110
H  -8.426160 2.335250 0.299190
H  -8.377100 1.127790 -0.988620
C  -8.818210 0.302430 0.954530
H  -9.908410 0.364670 0.803680
H  -8.635840 0.559770 2.013930
C  -8.324430 -1.117180 0.696210
H  -8.604550 -1.418720 -0.329550
H  -8.823800 -1.827650 1.375000
C  -6.810820 -1.217610 0.851380
H  -6.548050 -1.000590 1.902170
H  -6.464580 -2.244210 0.648330
