27

C  1.483480 0.940470 -0.589560
S  2.808020 0.839320 0.532790
C  1.911020 1.666310 -1.683900
C  3.912870 1.718000 -0.470510
C  3.270040 2.096620 -1.622520
H  1.248270 1.891820 -2.522020
C  5.345680 1.906040 -0.088350
H  3.764470 2.671120 -2.410340
H  5.442490 1.932260 1.011520
H  5.683950 2.892510 -0.448400
C  6.297670 0.835050 -0.641120
H  6.200620 0.850760 -1.743880
C  5.941880 -0.575180 -0.171750
H  4.908600 -0.817920 -0.464350
H  5.959230 -0.593930 0.935180
C  6.911110 -1.620640 -0.711620
H  6.643960 -2.620260 -0.329930
H  6.808050 -1.673030 -1.810870
C  8.356390 -1.284360 -0.361350
H  9.044620 -2.028920 -0.794430
H  8.485590 -1.341900 0.735150
C  8.722960 0.118620 -0.833110
H  8.703180 0.144860 -1.937830
H  9.755030 0.368100 -0.536560
C  7.749850 1.160800 -0.292780
H  7.845330 1.213500 0.808340
H  8.011080 2.163270 -0.672110
