16

C  1.424770 1.497620 -1.152740
C  2.817490 1.242180 -1.105140
C  1.087280 2.743640 -1.706370
C  3.773870 2.203540 -1.541340
N  3.396100 0.069900 -0.665310
C  2.031100 3.683430 -2.148000
H  0.031070 3.011280 -1.789060
C  3.395480 3.437780 -2.064610
S  5.382550 1.575090 -1.343600
C  4.681820 0.089480 -0.730350
H  1.683050 4.633830 -2.562580
H  4.132450 4.169810 -2.399670
C  5.534800 -1.050120 -0.306670
H  4.949390 -1.974350 -0.386140
Cl  6.074500 -0.907040 1.407010
H  6.445400 -1.133320 -0.912990
