16

C  2.374410 0.352090 -0.016720
C  3.231960 1.391820 -0.324480
C  3.281780 -0.743880 0.197510
O  4.547640 1.007980 -0.317760
C  3.004990 2.755750 -0.622510
C  4.560410 -0.297050 0.002660
H  2.993930 -1.761170 0.459060
N  2.802240 3.876640 -0.857430
C  5.890550 -0.958280 0.118970
H  5.721290 -2.053670 0.135770
O  6.645900 -0.547070 1.226090
H  6.499480 -0.721590 -0.766950
C  6.090980 -0.903760 2.455660
H  5.102810 -0.436130 2.625580
H  5.965420 -2.001860 2.548510
H  6.780660 -0.563600 3.240620
