16

C  2.306810 0.519630 0.102190
C  2.851980 1.707240 -0.417620
C  3.247620 -0.435980 0.527300
C  4.219680 1.900470 -0.511920
H  2.225700 2.519600 -0.787070
C  4.646720 -0.248040 0.465870
Cl  2.723710 -2.014920 1.094310
F  4.682350 3.049460 -1.025090
C  5.126490 0.953610 -0.072110
N  5.562620 -1.227980 0.868850
H  6.198470 1.152620 -0.131060
H  6.479740 -1.010380 0.494600
C  5.658150 -1.572760 2.272940
H  6.415190 -2.361220 2.397860
H  4.702300 -1.973650 2.633620
H  5.937300 -0.716390 2.919400
