23

C  -2.134600 0.349990 0.481130
C  -3.176220 -0.493620 0.073270
C  -2.581950 1.549440 1.082030
C  -4.539700 -0.180770 0.247610
H  -2.966380 -1.452330 -0.407210
C  -3.984500 1.763220 1.203770
C  -1.949870 2.712450 1.645190
N  -4.955730 0.950260 0.813340
C  -5.619840 -1.139050 -0.211420
N  -4.174480 2.979880 1.803210
C  -2.949830 3.550990 2.067450
H  -0.882590 2.915860 1.684120
H  -5.082220 3.370170 2.010280
H  -2.884220 4.529140 2.540330
H  -5.114730 -2.013630 -0.656890
C  -6.454200 -1.613270 0.976340
H  -7.253500 -2.300940 0.656120
H  -5.828920 -2.132310 1.719260
H  -6.915450 -0.746770 1.474150
C  -6.494820 -0.487810 -1.280000
H  -5.898550 -0.197230 -2.158680
H  -7.293710 -1.169250 -1.614140
H  -6.958260 0.424070 -0.873800
