17

C  2.253380 0.790480 0.289630
C  2.905250 1.891410 -0.194420
C  3.326140 -0.042560 0.784900
O  4.257610 1.799070 -0.033170
H  2.573860 2.803150 -0.686900
C  4.505390 0.610460 0.563570
H  3.211510 -1.028030 1.231430
C  5.936050 0.286150 0.842970
H  6.476630 0.351200 -0.120730
C  6.561530 1.312530 1.789480
H  7.637660 1.120800 1.926420
H  6.438580 2.331700 1.395740
H  6.075620 1.270830 2.777490
C  6.080550 -1.134030 1.373020
H  5.662040 -1.870030 0.669960
H  7.139500 -1.382200 1.540460
H  5.551670 -1.249130 2.332510
