34

C  -1.581700 0.184370 -0.601720
C  -2.506210 1.202460 -0.274600
C  -2.191130 -1.051790 -0.903700
C  -2.113140 2.629320 -0.133440
C  -3.887270 0.967250 -0.149150
C  -3.570790 -1.277580 -0.834080
H  -1.570950 -1.912890 -1.153960
O  -1.392600 3.238510 -0.886920
O  -2.726180 3.227260 0.902350
C  -4.461800 -0.266690 -0.419750
H  -4.521740 1.797360 0.163470
C  -4.064160 -2.588760 -1.134980
C  -2.524220 4.620610 1.022700
C  -5.944130 -0.527460 -0.328760
N  -4.460210 -3.655350 -1.365700
H  -1.471850 4.845680 1.249320
H  -3.164020 4.955470 1.847990
H  -2.796350 5.141430 0.092530
H  -6.067690 -1.582760 -0.022840
C  -6.619850 -0.386490 -1.701710
H  -6.109660 -1.031460 -2.434310
H  -6.487240 0.653570 -2.051410
C  -8.103030 -0.731000 -1.633950
H  -8.570900 -0.586000 -2.621270
H  -8.208710 -1.804580 -1.395690
C  -8.825900 0.093680 -0.574590
H  -9.884070 -0.207500 -0.508020
H  -8.823970 1.156480 -0.878940
C  -8.149230 -0.034510 0.786110
H  -8.248260 -1.074610 1.145800
H  -8.657390 0.600280 1.530180
C  -6.670530 0.329260 0.708070
H  -6.583710 1.395700 0.433820
H  -6.186270 0.218630 1.692030
