21

C  2.169380 0.458780 -0.797960
C  3.344730 -0.304990 -0.655040
C  2.380170 1.789690 -1.219070
C  3.295770 -1.751430 -0.290020
C  4.645900 0.196630 -0.898110
C  3.651090 2.312880 -1.472140
H  1.533160 2.469070 -1.320150
O  2.933090 -2.645600 -1.013540
O  3.785640 -1.969610 0.940510
C  4.789700 1.513780 -1.312850
C  5.865410 -0.667880 -0.729470
C  3.782970 3.682330 -1.871490
C  3.993860 -3.319030 1.310430
H  5.780920 1.924790 -1.514540
N  3.882070 4.796360 -2.180780
H  3.135650 -3.944410 1.034080
H  4.139840 -3.327230 2.397030
H  4.892510 -3.715720 0.811490
H  5.754880 -1.629310 -1.255800
H  6.046450 -0.895510 0.331860
H  6.757800 -0.168400 -1.130560
