24

C  1.710170 -0.334870 -0.701300
C  2.222560 -0.515730 -2.013420
N  2.547020 -0.236690 0.342630
C  3.587160 -0.592200 -2.264010
H  1.517460 -0.592470 -2.844280
C  3.844440 -0.298150 0.088650
C  4.461620 -0.476020 -1.176080
H  3.962240 -0.734960 -3.281950
N  4.844600 -0.199320 1.023400
C  5.887520 -0.495360 -0.969470
C  6.062120 -0.324800 0.384230
H  4.705080 -0.125890 2.020950
C  6.964380 -0.634450 -1.995000
O  7.198070 -0.278960 1.106170
C  7.121880 0.591080 -2.892760
H  6.755920 -1.518170 -2.623560
H  7.915380 -0.847780 -1.480120
H  6.184340 0.819440 -3.422390
H  7.909140 0.438990 -3.647820
H  7.384080 1.482970 -2.302410
C  7.792160 0.999170 1.204880
H  8.089900 1.380520 0.213630
H  7.105600 1.728260 1.669540
H  8.685630 0.894410 1.834840
