27

C  1.654200 0.977550 -0.710890
C  2.896850 0.561490 -0.226830
C  1.780730 2.041970 -1.624070
C  4.156890 1.076930 -0.551330
F  2.935200 -0.466910 0.656990
Cl  0.378150 2.757940 -2.406520
C  2.994690 2.620690 -1.993810
C  4.181050 2.137420 -1.455680
C  5.392570 0.444210 0.042060
H  3.000800 3.447260 -2.705650
H  5.128140 2.593290 -1.748490
H  5.168240 0.236010 1.104100
C  6.636250 1.329850 0.003410
H  6.425400 2.297860 0.486440
H  6.897120 1.553150 -1.046650
C  7.826390 0.644700 0.666730
H  8.714960 1.295120 0.619300
H  7.607080 0.496950 1.739870
C  8.122010 -0.706550 0.024270
H  8.960620 -1.203250 0.539380
H  8.450090 -0.545050 -1.018850
C  6.887930 -1.601950 0.025060
H  6.631870 -1.865110 1.067730
H  7.101950 -2.552930 -0.490300
C  5.691410 -0.911120 -0.618830
H  5.889920 -0.738400 -1.692100
H  4.799000 -1.552660 -0.562400
