12
Properties=species:S:1:pos:R:3 RH_Sub22_O.log=T Energy:=T -183348.0830000=T pbc="F F F"
O        0.53854000       1.26002000      -0.09168000
H        1.36880000       1.66315000       0.18300000
C        0.50699000      -0.02981000       0.36101000
F        1.42956000      -0.80415000      -0.31892000
H        0.80617000      -0.09885000       1.42806000
C       -0.85129000      -0.62471000       0.16624000
H       -0.89675000      -1.70756000       0.32075000
C       -1.93450000       0.07867000      -0.15210000
H       -2.90711000      -0.40364000      -0.27587000
H       -1.87264000       1.15924000      -0.30310000
Xe      -1.39289500      -0.27302000       0.00707000
Xe      -0.89478250      -1.66069450       0.31406284
