24
Properties=species:S:1:pos:R:3 RH_Sub29.log=T Energy:=T -217044.1839004=T pbc="F F F"
N        0.01800000       1.51867000       0.16989000
H       -0.19979000       1.66430000      -0.81468000
H        0.48553000       2.35509000       0.51235000
C        0.84398000       0.35527000       0.33495000
N        2.10073000       0.46672000      -0.39955000
H        1.03654000       0.26004000       1.43058000
C       -3.19347000       0.51806000      -0.11051000
H       -3.97641000       0.83520000      -0.80488000
C       -2.39846000      -0.51653000      -0.38226000
H       -2.53440000      -1.05092000      -1.33292000
C        0.09766000      -0.90638000      -0.09965000
H        0.70778000      -1.77890000       0.17864000
H        0.05418000      -0.90730000      -1.20336000
C       -1.30818000      -1.04423000       0.49936000
H       -1.51094000      -2.11356000       0.68380000
H       -1.34624000      -0.54179000       1.47919000
H       -3.07348000       1.09473000       0.81147000
H        2.47855000       1.39600000      -0.22961000
C        3.10386000      -0.52291000      -0.08521000
H        4.06137000      -0.23948000      -0.54658000
H        2.83220000      -1.50583000      -0.50085000
H        3.28165000      -0.66508000       1.00437000
Xe      -2.79596500       0.00076500      -0.24638500
Xe      -3.07863856       1.06993804       0.77183262
