31
Properties=species:S:1:pos:R:3 aa325_opt_TZ.log=T Energy:=T -856634.5147671=T pbc="F F F"
C       -4.69785000      -0.63947000      -1.03962000
C       -3.74699000      -0.18648000      -0.12697000
C       -2.33187000      -0.54340000      -0.37367000
O       -1.96672000      -1.48873000      -1.02093000
N       -1.42533000       0.36326000       0.19442000
H       -1.76539000       1.30445000       0.34575000
C       -0.05522000       0.23280000       0.13968000
C        0.60752000      -0.98762000       0.32879000
C        1.99264000      -1.06004000       0.24536000
C        2.77242000       0.07138000       0.00104000
C        2.12657000       1.29884000      -0.13553000
C        0.74370000       1.36366000      -0.07177000
C        4.27436000      -0.08549000      -0.05931000
C       -6.03493000      -0.34347000      -0.85608000
C       -6.43506000       0.39284000       0.24736000
C       -5.49689000       0.82572000       1.17126000
C       -4.15589000       0.54310000       0.98769000
F       -0.07167000      -2.08325000       0.65750000
F        2.58700000      -2.23359000       0.43517000
F        0.12626000       2.55016000      -0.20558000
F        2.81142000       2.42036000      -0.33474000
F        4.77516000      -0.43722000       1.13561000
F        4.91015000       1.02417000      -0.42831000
F        4.63540000      -1.03974000      -0.92570000
H       -4.36540000      -1.21942000      -1.88708000
H       -6.76646000      -0.68968000      -1.57015000
H       -7.47951000       0.62355000       0.39336000
H       -5.81218000       1.38468000       2.03946000
H       -3.43858000       0.86129000       1.73035000
Xe      -4.82639000       0.68441000       1.07947500
Xe      -5.80055172       1.36406487       2.00743972
