24
Properties=species:S:1:pos:R:3 aa38_opt_TZ.log=T Energy:=T -300713.5982689=T pbc="F F F"
C       -2.61925000      -0.22799000      -0.00110000
O       -2.52280000      -1.43444000      -0.00065000
C       -3.96633000       0.46980000       0.00243000
H       -3.88604000       1.55236000      -0.03373000
H       -4.54072000       0.11957000      -0.85240000
H       -4.50583000       0.17653000       0.90065000
N       -1.56092000       0.63152000      -0.00190000
H       -1.77015000       1.62012000      -0.00121000
C       -0.18971000       0.34337000      -0.00116000
C        0.69837000       1.41777000      -0.00084000
C        2.06062000       1.19948000      -0.00003000
C        2.57742000      -0.09166000       0.00054000
C        1.68514000      -1.15437000       0.00001000
C        0.31699000      -0.95103000      -0.00089000
H        0.31540000       2.42988000      -0.00123000
H        2.73550000       2.04364000       0.00028000
C        4.05986000      -0.31276000       0.00145000
H        2.06254000      -2.16673000       0.00037000
H       -0.35962000      -1.78850000      -0.00129000
H        4.29423000      -1.37403000       0.00640000
H        4.51230000       0.13892000      -0.88085000
H        4.51266000       0.14742000       0.87911000
Xe       1.37949500       1.30862500      -0.00043500
Xe       2.71028112       2.01209547       0.00026842
