21
Properties=species:S:1:pos:R:3 aa64_opt_TZ.log=T Energy:=T -276063.9339939=T pbc="F F F"
C       -0.17028000      -0.29749000      -0.01545000
C        0.46536000       0.94132000      -0.11503000
C        1.85430000       0.97659000      -0.05643000
C        2.59906000      -0.17825000       0.09396000
C        1.96262000      -1.40612000       0.16581000
C        0.58398000      -1.46115000       0.10183000
C       -0.29113000       2.22289000      -0.31287000
H        2.35708000       1.93011000      -0.13676000
H        3.67652000      -0.12107000       0.14062000
H        2.53768000      -2.31424000       0.26458000
H        0.06764000      -2.40845000       0.14319000
C       -1.65712000      -0.46437000      -0.05777000
O       -2.21816000      -1.23518000      -0.80529000
N       -2.33554000       0.29365000       0.84030000
H       -3.33511000       0.19137000       0.90126000
H       -1.86390000       0.87778000       1.50580000
H        0.27936000       2.89531000      -0.94970000
H       -1.25883000       2.04534000      -0.77365000
H       -0.44720000       2.72921000       0.64049000
Xe       2.22668000       0.39917000       0.01876500
Xe       2.33825513       1.89440872      -0.13375232
