27
Properties=species:S:1:pos:R:3 RH_Sub9.log=T Energy:=T -325374.4661990=T pbc="F F F"
N        2.37644000      -1.73784000      -0.68866000
C        1.23948000      -1.46115000       0.00897000
H        2.77341000      -1.07307000      -1.33619000
H        2.66320000      -2.70662000      -0.74395000
O        0.62183000      -2.32699000       0.60016000
C        0.84445000      -0.01154000       0.01792000
C        1.85274000       0.95183000       0.16238000
C       -0.50616000       0.38605000      -0.07547000
C        1.55215000       2.30763000       0.22488000
C       -0.78149000       1.75833000      -0.02337000
C       -1.64559000      -0.60785000      -0.20168000
C        0.22292000       2.70986000       0.12833000
H        2.34955000       3.04285000       0.35400000
H       -1.81744000       2.09408000      -0.10161000
H       -0.03651000       3.77046000       0.17298000
H        2.89069000       0.62339000       0.25812000
H       -1.22807000      -1.54312000      -0.60066000
C       -2.20702000      -0.93485000       1.18361000
H       -3.02318000      -1.67044000       1.10564000
H       -1.41960000      -1.36159000       1.81890000
H       -2.60826000      -0.03059000       1.66980000
C       -2.74425000      -0.14323000      -1.15439000
H       -2.33853000       0.14368000      -2.13670000
H       -3.47114000      -0.95480000      -1.31106000
H       -3.30721000       0.71608000      -0.75693000
Xe       1.70244500       1.62973000       0.19363000
Xe       2.31586758       3.01179409       0.34854593
