15
Properties=species:S:1:pos:R:3 RH_Sub21.log=T Energy:=T -203584.2197906=T pbc="F F F"
O       -0.22222000       1.38995000       0.48909000
H       -0.74770000       2.09911000       0.10224000
C       -0.44462000       0.21314000      -0.23740000
C       -1.87006000      -0.17314000      -0.18997000
H       -0.18775000       0.34050000      -1.30914000
C        1.89964000      -0.74522000       0.09786000
H        2.48931000      -1.63759000       0.34001000
C        2.53203000       0.33480000      -0.36134000
H        3.61503000       0.32861000      -0.50616000
C        0.42721000      -0.89962000       0.33011000
H        0.09212000      -1.85622000      -0.10408000
H        0.22049000      -0.97345000       1.41268000
H        2.00262000       1.26524000      -0.58020000
N       -2.99593000      -0.43794000      -0.15767000
Xe       2.26732500       0.80002000      -0.47077000
