19

C       0.460070000000000     -1.441070000000000      1.104010000000000
C      -0.395060000000000     -0.969110000000000      2.144580000000000
C      -0.007090000000000     -1.589270000000000     -0.230090000000000
C      -1.707380000000000     -0.639380000000000      1.894380000000000
H       0.018530000000000     -0.876010000000000      3.149770000000000
C      -1.371110000000000     -1.266190000000000     -0.436550000000000
H       0.570060000000000     -2.125750000000000     -0.985290000000000
C      -2.189750000000000     -0.791710000000000      0.577410000000000
H      -2.364490000000000     -0.272300000000000      2.684430000000000
O      -2.045740000000000     -1.342660000000000     -1.584640000000000
C      -3.430630000000000     -0.586370000000000     -0.111620000000000
N      -3.340810000000000     -0.912500000000000     -1.374400000000000
O      -4.533780000000000     -0.127570000000000      0.450420000000000
H       1.456570000000000     -1.800650000000000      1.372690000000000
He      1.108080000000000      0.305250000000000     -0.154240000000000
C      -5.661080000000000      0.010010000000000     -0.397200000000000
H      -5.445090000000000      0.706250000000000     -1.222090000000000
H      -5.945630000000000     -0.962160000000000     -0.828210000000000
H      -6.471290000000000      0.400730000000000      0.228840000000000
