15

C       0.044640000000000     -1.546180000000000     -0.080600000000000
C      -0.010320000000000     -1.175390000000000     -1.458890000000000
C       1.249640000000000     -1.411140000000000      0.647900000000000
C       1.118060000000000     -0.659970000000000     -2.136800000000000
H      -0.904430000000000     -1.438070000000000     -2.027840000000000
C       2.322890000000000     -0.878830000000000     -0.030550000000000
Cl      1.350500000000000     -1.854440000000000      2.299080000000000
C       2.274570000000000     -0.503150000000000     -1.395780000000000
H       1.080060000000000     -0.399150000000000     -3.194330000000000
O       3.565480000000000     -0.603810000000000      0.422090000000000
N       3.521080000000000     -0.001080000000000     -1.740190000000000
C       4.205400000000000     -0.087100000000000     -0.658300000000000
H       5.243990000000000      0.202530000000000     -0.499570000000000
H      -0.808000000000000     -2.041860000000000      0.395100000000000
He     -0.889930000000000      0.507780000000000     -0.252710000000000
