31

C       0.792270000000000     -0.538650000000000     -1.561280000000000
C       1.144570000000000     -1.670200000000000     -0.783770000000000
C      -0.556030000000000     -0.061330000000000     -1.605170000000000
C       0.086810000000000     -2.312390000000000     -0.083370000000000
H       2.126520000000000     -2.135110000000000     -0.890600000000000
C      -1.580070000000000     -0.646200000000000     -0.890050000000000
H      -0.758310000000000      0.810860000000000     -2.227590000000000
C      -1.197630000000000     -1.787080000000000     -0.139890000000000
C      -0.072870000000000     -3.442190000000000      0.773940000000000
C      -2.994510000000000     -0.144270000000000     -0.828420000000000
O      -2.016960000000000     -2.531480000000000      0.609630000000000
H       0.669590000000000     -4.165150000000000      1.110990000000000
N      -1.307400000000000     -3.562670000000000      1.173670000000000
H       1.513600000000000     -0.095100000000000     -2.250820000000000
He      1.691180000000000      0.149340000000000      0.344800000000000
H      -3.650500000000000     -1.033280000000000     -0.886180000000000
C      -3.375520000000000      0.797580000000000     -1.967890000000000
H      -3.189590000000000      0.312260000000000     -2.939940000000000
H      -2.729650000000000      1.692930000000000     -1.931750000000000
C      -4.830530000000000      1.239470000000000     -1.856380000000000
H      -5.078720000000000      1.927350000000000     -2.680290000000000
H      -5.487500000000000      0.359490000000000     -1.978370000000000
C      -5.111020000000000      1.895910000000000     -0.509120000000000
H      -6.173920000000000      2.175800000000000     -0.432110000000000
H      -4.535720000000000      2.836980000000000     -0.439450000000000
C      -4.715800000000000      0.981110000000000      0.644450000000000
H      -5.375290000000000      0.094590000000000      0.649280000000000
H      -4.873920000000000      1.487640000000000      1.610270000000000
C      -3.267110000000000      0.522530000000000      0.532870000000000
H      -2.580810000000000      1.380140000000000      0.639580000000000
H      -3.016220000000000     -0.174370000000000      1.346240000000000
