18

C      -0.158300000000000     -1.243410000000000      1.142280000000000
C       0.290050000000000     -1.564920000000000     -0.168000000000000
C       0.769900000000000     -0.615210000000000      1.995520000000000
C       1.618500000000000     -1.274830000000000     -0.544350000000000
C      -0.193350000000000     -2.291670000000000     -1.317930000000000
C       2.068840000000000     -0.281020000000000      1.600100000000000
H       0.452820000000000     -0.371160000000000      3.011150000000000
C       2.504410000000000     -0.630860000000000      0.303350000000000
O       1.848430000000000     -1.734060000000000     -1.779900000000000
H      -1.185600000000000     -2.707540000000000     -1.484500000000000
N       0.713810000000000     -2.369140000000000     -2.239220000000000
C       2.992030000000000      0.446300000000000      2.523690000000000
Cl      4.094130000000000     -0.272040000000000     -0.235260000000000
H      -1.108960000000000     -1.594610000000000      1.544680000000000
He     -0.928380000000000      0.421680000000000     -0.137340000000000
H       3.941050000000000     -0.096920000000000      2.647690000000000
H       2.531920000000000      0.588570000000000      3.509620000000000
H       3.241950000000000      1.435350000000000      2.108340000000000
