20

C       0.287480000000000     -1.148390000000000      1.001680000000000
C      -0.839690000000000     -0.614860000000000      1.678590000000000
C       0.011410000000000     -1.588300000000000     -0.322630000000000
C      -2.096180000000000     -0.437760000000000      1.110390000000000
O      -0.850480000000000     -0.188840000000000      2.939060000000000
C      -1.254820000000000     -1.434860000000000     -0.907350000000000
H       0.770760000000000     -2.151440000000000     -0.868400000000000
C      -2.340450000000000     -0.828520000000000     -0.245100000000000
C      -2.833680000000000      0.151040000000000      2.186490000000000
N      -2.095220000000000      0.287700000000000      3.250180000000000
Cl     -1.474500000000000     -1.939480000000000     -2.557270000000000
N      -3.514390000000000     -0.645950000000000     -0.875170000000000
H      -3.870210000000000      0.476010000000000      2.235880000000000
H       1.195370000000000     -1.435730000000000      1.545120000000000
He      1.113530000000000      0.437010000000000     -0.217390000000000
H      -3.535490000000000     -0.959160000000000     -1.838360000000000
C      -4.671220000000000      0.014310000000000     -0.340930000000000
H      -5.436450000000000      0.070500000000000     -1.124870000000000
H      -4.443330000000000      1.043990000000000     -0.018830000000000
H      -5.107660000000000     -0.533490000000000      0.511030000000000
