21

C       0.255990000000000     -0.549360000000000      1.225590000000000
C       1.592570000000000     -0.331490000000000      0.735940000000000
C      -0.122100000000000      0.687160000000000      1.783450000000000
C       1.927410000000000      0.985520000000000      1.062530000000000
C       2.455290000000000     -1.138140000000000     -0.041830000000000
Cl     -1.340990000000000      1.030880000000000      2.922110000000000
O       0.879140000000000      1.587340000000000      1.717290000000000
C       3.138710000000000      1.572750000000000      0.740880000000000
C       3.709880000000000     -0.565770000000000     -0.339990000000000
N       2.039750000000000     -2.358950000000000     -0.456970000000000
C       4.024100000000000      0.740240000000000      0.049570000000000
H       3.376080000000000      2.602440000000000      1.003500000000000
H       4.440240000000000     -1.135080000000000     -0.915340000000000
H       5.006200000000000      1.134840000000000     -0.223060000000000
H      -0.209310000000000     -1.506310000000000      1.442980000000000
He     -1.029010000000000      0.367330000000000     -0.226940000000000
H       1.029470000000000     -2.521760000000000     -0.442420000000000
C       2.821100000000000     -3.184310000000000     -1.330550000000000
H       2.261780000000000     -4.104510000000000     -1.542420000000000
H       3.778550000000000     -3.472940000000000     -0.864870000000000
H       3.050690000000000     -2.693960000000000     -2.296030000000000
