16

C      -0.516990000000000      1.256660000000000      1.308590000000000
C       0.552360000000000      1.942920000000000      1.937370000000000
C      -0.760150000000000      1.470490000000000     -0.071530000000000
C       1.350950000000000      2.800500000000000      1.208160000000000
H       0.724620000000000      1.788820000000000      3.004200000000000
C       0.064870000000000      2.364380000000000     -0.797500000000000
C      -2.079930000000000      1.095430000000000     -0.713210000000000
C       1.105440000000000      3.008150000000000     -0.163170000000000
H       2.177670000000000      3.322310000000000      1.694240000000000
H      -0.139920000000000      2.538390000000000     -1.855180000000000
H       1.745500000000000      3.687610000000000     -0.729200000000000
H      -1.242380000000000      0.694410000000000      1.899600000000000
He      0.533370000000000     -0.431960000000000      0.305580000000000
F      -1.908950000000000      0.534740000000000     -1.904000000000000
F      -2.799980000000000      2.211920000000000     -0.902220000000000
F      -2.811400000000000      0.283950000000000      0.043040000000000
