23

C      -0.256920000000000      0.729260000000000      0.811270000000000
C      -1.447900000000000     -0.091320000000000      0.689670000000000
C       0.628140000000000      0.218700000000000      1.777840000000000
C      -1.421790000000000     -1.191460000000000      1.571130000000000
C      -2.538720000000000      0.060520000000000     -0.185100000000000
H       1.505260000000000      0.738690000000000      2.186290000000000
S       0.018590000000000     -1.206850000000000      2.558780000000000
C      -2.454030000000000     -2.131770000000000      1.596790000000000
C      -3.569870000000000     -0.866570000000000     -0.151120000000000
C      -2.542960000000000      1.222880000000000     -1.155510000000000
C      -3.526620000000000     -1.953080000000000      0.735070000000000
H      -2.417500000000000     -2.984450000000000      2.277350000000000
H      -4.414190000000000     -0.746840000000000     -0.830670000000000
H      -4.348070000000000     -2.672720000000000      0.741110000000000
H      -0.191210000000000      1.743820000000000      0.415300000000000
He      1.379280000000000     -0.215270000000000     -0.234100000000000
F      -3.675500000000000      1.193270000000000     -1.902640000000000
F      -1.511430000000000      1.109370000000000     -2.007370000000000
O      -2.403640000000000      2.442570000000000     -0.572290000000000
C      -3.400490000000000      2.808460000000000      0.357170000000000
H      -4.394970000000000      2.830430000000000     -0.114930000000000
H      -3.421580000000000      2.120140000000000      1.219250000000000
H      -3.144620000000000      3.815800000000000      0.705990000000000
