16

C       0.195170000000000     -1.522320000000000      0.250880000000000
C      -1.128160000000000     -1.296710000000000      0.796180000000000
C       0.072510000000000     -1.251950000000000     -1.123160000000000
C      -1.918700000000000     -0.915600000000000     -0.297280000000000
C      -1.681660000000000     -1.358360000000000      2.078310000000000
H       0.714830000000000     -1.528460000000000     -1.958210000000000
O      -1.205460000000000     -0.915850000000000     -1.448460000000000
C      -3.259230000000000     -0.571250000000000     -0.158010000000000
C      -3.025220000000000     -1.033830000000000      2.220310000000000
H      -1.071880000000000     -1.646450000000000      2.936050000000000
C      -3.804860000000000     -0.643680000000000      1.120550000000000
Cl     -4.185700000000000     -0.076880000000000     -1.520430000000000
H      -3.492590000000000     -1.074060000000000      3.206220000000000
H      -4.856940000000000     -0.385590000000000      1.252780000000000
H       1.042650000000000     -2.001600000000000      0.749310000000000
He      1.123050000000000      0.395520000000000     -0.203750000000000
