21

C       0.988770000000000     -0.663630000000000      0.195760000000000
C       2.063260000000000      0.326330000000000     -0.195010000000000
C       0.641410000000000     -0.409760000000000      1.533230000000000
C       3.333200000000000     -0.383550000000000     -0.717020000000000
H       1.701920000000000      0.988150000000000     -1.007920000000000
C       2.211320000000000      1.163810000000000      1.040010000000000
Cl     -0.092840000000000     -1.504610000000000      2.633110000000000
C       1.388560000000000      0.746810000000000      2.022340000000000
H       2.855180000000000      2.042590000000000      1.093930000000000
H       1.251700000000000      1.182290000000000      3.011410000000000
H       0.872310000000000     -1.624790000000000     -0.303150000000000
He     -0.876080000000000      0.276150000000000      0.048220000000000
H       3.585950000000000     -1.172200000000000      0.014780000000000
C       3.050250000000000     -1.034890000000000     -2.066740000000000
H       3.904350000000000     -1.649190000000000     -2.389290000000000
H       2.155360000000000     -1.674170000000000     -2.053560000000000
H       2.882790000000000     -0.263660000000000     -2.836260000000000
C       4.514560000000000      0.574330000000000     -0.810460000000000
H       4.817740000000000      0.960350000000000      0.173850000000000
H       5.386380000000000      0.066200000000000     -1.249500000000000
H       4.274240000000000      1.435220000000000     -1.456230000000000
