24

C       0.281040000000000     -1.048720000000000      1.395450000000000
C      -0.495590000000000     -0.389280000000000      2.498110000000000
C      -0.608990000000000     -1.246550000000000      0.323610000000000
H      -0.552410000000000     -1.069120000000000      3.368860000000000
H      -0.028910000000000      0.540850000000000      2.865520000000000
C      -1.834270000000000     -0.148790000000000      1.886310000000000
Cl     -0.387380000000000     -2.451160000000000     -0.888220000000000
C      -1.922590000000000     -0.634450000000000      0.626100000000000
H      -2.614630000000000      0.421010000000000      2.389720000000000
C      -3.078030000000000     -0.484520000000000     -0.341250000000000
H       1.175490000000000     -1.645370000000000      1.574460000000000
He      0.813750000000000      0.410690000000000     -0.023590000000000
C      -2.558500000000000      0.125910000000000     -1.651620000000000
H      -3.391850000000000      0.265200000000000     -2.357630000000000
H      -2.097780000000000      1.106310000000000     -1.459870000000000
H      -1.809960000000000     -0.516630000000000     -2.136270000000000
C      -3.735320000000000     -1.847430000000000     -0.607490000000000
H      -4.122430000000000     -2.281950000000000      0.326960000000000
H      -4.580670000000000     -1.725470000000000     -1.302800000000000
H      -3.031110000000000     -2.563160000000000     -1.051250000000000
C      -4.128720000000000      0.457370000000000      0.249970000000000
H      -4.955730000000000      0.587150000000000     -0.464250000000000
H      -4.556740000000000      0.056600000000000      1.181740000000000
H      -3.699750000000000      1.448650000000000      0.460890000000000
