26

C      -0.644700000000000     -1.524090000000000      0.837660000000000
C      -0.356870000000000     -1.487170000000000     -0.540740000000000
C       0.591370000000000     -1.229600000000000      1.492840000000000
O       0.973090000000000     -1.241190000000000     -0.710790000000000
H      -0.869880000000000     -1.939740000000000     -1.388280000000000
C       1.525660000000000     -1.056100000000000      0.511520000000000
H       0.757670000000000     -1.128980000000000      2.561930000000000
C       2.960630000000000     -0.680970000000000      0.545550000000000
H      -1.585650000000000     -1.846300000000000      1.292000000000000
He     -1.456340000000000      0.307310000000000     -0.182100000000000
H       3.233210000000000     -0.607480000000000      1.612670000000000
C       3.195350000000000      0.691820000000000     -0.105800000000000
H       2.561390000000000      1.443120000000000      0.387390000000000
H       2.851760000000000      0.641290000000000     -1.153440000000000
C       4.667990000000000      1.078270000000000     -0.062500000000000
H       4.813610000000000      2.050090000000000     -0.560970000000000
H       4.976670000000000      1.221440000000000      0.989150000000000
C       5.548850000000000      0.012210000000000     -0.704600000000000
H       6.611420000000000      0.294210000000000     -0.630960000000000
H       5.316260000000000     -0.047420000000000     -1.783200000000000
C       5.317720000000000     -1.353640000000000     -0.067710000000000
H       5.657710000000000     -1.327460000000000      0.983540000000000
H       5.926900000000000     -2.122320000000000     -0.569610000000000
C       3.847120000000000     -1.751840000000000     -0.107550000000000
H       3.523150000000000     -1.882680000000000     -1.154480000000000
H       3.692190000000000     -2.720500000000000      0.394130000000000
