10

C       0.177180000000000     -1.604220000000000      0.650320000000000
C       0.314080000000000     -1.521650000000000     -0.749050000000000
C       1.499460000000000     -1.485980000000000      1.182320000000000
O       1.643230000000000     -1.416370000000000     -1.062830000000000
H      -0.330310000000000     -1.874330000000000     -1.553100000000000
C       2.314950000000000     -1.367090000000000      0.096880000000000
H       1.800170000000000     -1.462350000000000      2.225220000000000
Cl      3.983790000000000     -1.144310000000000     -0.009030000000000
H      -0.742910000000000     -1.843230000000000      1.193610000000000
He     -0.517530000000000      0.357210000000000     -0.191490000000000
