22

C      -0.186150000000000     -1.202700000000000      0.765500000000000
C       0.044310000000000     -1.510790000000000     -0.604500000000000
N       1.107080000000000     -0.981240000000000      1.231020000000000
Cl     -1.070790000000000     -2.206420000000000     -1.691240000000000
N       1.344860000000000     -1.395480000000000     -0.929410000000000
C       1.961480000000000     -1.045330000000000      0.190250000000000
H       1.333850000000000     -0.639540000000000      2.155770000000000
C       3.435380000000000     -0.764700000000000      0.285300000000000
H      -1.031230000000000     -1.470660000000000      1.415650000000000
He     -0.865850000000000      0.658350000000000     -0.005840000000000
C       3.820570000000000      0.159790000000000     -0.875610000000000
H       4.902700000000000      0.359120000000000     -0.848950000000000
H       3.568510000000000     -0.306380000000000     -1.837820000000000
H       3.273610000000000      1.110450000000000     -0.804720000000000
C       3.770970000000000     -0.097220000000000      1.618860000000000
H       3.547880000000000     -0.751350000000000      2.478060000000000
H       4.846310000000000      0.127710000000000      1.661830000000000
H       3.223200000000000      0.851200000000000      1.733860000000000
C       4.172960000000000     -2.106200000000000      0.154340000000000
H       5.260700000000000     -1.938490000000000      0.174090000000000
H       3.915170000000000     -2.788130000000000      0.979330000000000
H       3.912370000000000     -2.598360000000000     -0.793520000000000
