26

C      -0.039520000000000     -0.831810000000000      1.377870000000000
C       0.344140000000000     -1.291370000000000      0.085570000000000
N       1.056700000000000     -0.338150000000000      2.031180000000000
C       1.773780000000000     -0.997520000000000     -0.009540000000000
C      -0.375950000000000     -2.373230000000000     -0.688580000000000
C       2.160210000000000     -0.389340000000000      1.207050000000000
H       1.007560000000000      0.181650000000000      2.896550000000000
C       2.738330000000000     -1.196160000000000     -1.005360000000000
C       3.463190000000000      0.048620000000000      1.441720000000000
C       4.042790000000000     -0.779160000000000     -0.773490000000000
H       2.473180000000000     -1.664440000000000     -1.953850000000000
C       4.397970000000000     -0.159560000000000      0.435960000000000
H       3.738200000000000      0.534340000000000      2.380010000000000
H       4.802680000000000     -0.928680000000000     -1.543230000000000
H       5.429480000000000      0.166190000000000      0.588820000000000
H      -0.982560000000000     -1.003240000000000      1.904580000000000
He     -0.710120000000000      0.643810000000000     -0.115010000000000
H      -1.403050000000000     -2.402680000000000     -0.297890000000000
C      -0.474910000000000     -2.095320000000000     -2.185300000000000
H      -1.034340000000000     -2.902440000000000     -2.682300000000000
H      -1.006760000000000     -1.152270000000000     -2.372960000000000
H       0.513900000000000     -2.038500000000000     -2.663920000000000
C       0.279120000000000     -3.725800000000000     -0.400260000000000
H       0.314480000000000     -3.931180000000000      0.680310000000000
H      -0.290650000000000     -4.535310000000000     -0.881980000000000
H       1.310890000000000     -3.764950000000000     -0.781930000000000
