19

C       0.088860000000000     -1.448930000000000      0.214830000000000
C       1.491910000000000     -1.155460000000000      0.011890000000000
C      -0.175330000000000     -1.127040000000000      1.571530000000000
C       1.996560000000000     -0.662050000000000      1.236910000000000
C       2.375130000000000     -1.222080000000000     -1.062030000000000
H      -1.049750000000000     -1.397130000000000      2.162870000000000
N       0.976330000000000     -0.688920000000000      2.165670000000000
N       3.225460000000000     -0.243290000000000      1.463440000000000
C       3.691540000000000     -0.799210000000000     -0.860180000000000
H       2.044150000000000     -1.586010000000000     -2.038460000000000
H       1.051790000000000     -0.294420000000000      3.093880000000000
C       4.044390000000000     -0.321040000000000      0.418230000000000
C       4.704770000000000     -0.845280000000000     -1.965680000000000
H       5.072360000000000      0.021260000000000      0.587100000000000
H      -0.544060000000000     -2.055240000000000     -0.436920000000000
He     -1.049330000000000      0.384040000000000      0.188930000000000
H       4.350330000000000     -0.304020000000000     -2.856480000000000
H       4.912820000000000     -1.881810000000000     -2.275610000000000
H       5.657020000000000     -0.393220000000000     -1.654540000000000
