19

C      -0.023890000000000     -1.194620000000000      0.679130000000000
C       1.367600000000000     -0.824880000000000      0.564670000000000
C      -0.459030000000000     -0.633610000000000      1.907150000000000
C       1.704950000000000     -0.063590000000000      1.706020000000000
C       2.367300000000000     -0.994960000000000     -0.390330000000000
H      -1.377790000000000     -0.851970000000000      2.450380000000000
N       0.589230000000000      0.005360000000000      2.512630000000000
N       2.870580000000000      0.497350000000000      1.960700000000000
C       3.628320000000000     -0.431620000000000     -0.163400000000000
Cl      2.033590000000000     -1.869210000000000     -1.834400000000000
H       0.536400000000000      0.572810000000000      3.348230000000000
C       3.798910000000000      0.296930000000000      1.031300000000000
C       4.745350000000000     -0.577220000000000     -1.147530000000000
H       4.779280000000000      0.748480000000000      1.222700000000000
H      -0.544150000000000     -1.962770000000000      0.099770000000000
He     -1.260070000000000      0.495050000000000      0.157540000000000
H       4.469500000000000     -0.153350000000000     -2.125830000000000
H       4.990090000000000     -1.637140000000000     -1.318650000000000
H       5.650350000000000     -0.066210000000000     -0.792050000000000
