19

C       0.303450000000000     -1.475280000000000      0.325140000000000
C      -0.056910000000000     -0.874300000000000      1.576720000000000
C      -0.709740000000000     -1.666660000000000     -0.653890000000000
H       0.721590000000000     -0.818740000000000      2.342530000000000
N      -1.279670000000000     -0.438110000000000      1.866030000000000
C      -1.979460000000000     -1.186090000000000     -0.390760000000000
Cl     -0.349780000000000     -2.476920000000000     -2.123060000000000
C      -2.171780000000000     -0.582610000000000      0.900700000000000
C      -3.233830000000000     -1.122200000000000     -1.073360000000000
N      -3.472240000000000     -0.188660000000000      0.975620000000000
C      -4.101970000000000     -0.509770000000000     -0.211420000000000
H      -3.454000000000000     -1.484340000000000     -2.073850000000000
C      -4.054850000000000      0.493430000000000      2.102640000000000
H      -5.154930000000000     -0.268540000000000     -0.347780000000000
H       1.237020000000000     -2.034660000000000      0.257170000000000
He      0.999540000000000      0.537800000000000     -0.130030000000000
H      -4.379110000000000      1.506910000000000      1.821920000000000
H      -3.283060000000000      0.566330000000000      2.879040000000000
H      -4.915420000000000     -0.066630000000000      2.497420000000000
