19

C       0.126340000000000     -1.242190000000000      1.304720000000000
C      -0.637120000000000     -0.612090000000000      2.343670000000000
C      -0.495120000000000     -1.521280000000000      0.058600000000000
H      -0.153580000000000     -0.426490000000000      3.308350000000000
N      -1.890760000000000     -0.246020000000000      2.217110000000000
C      -1.846610000000000     -1.130660000000000     -0.086010000000000
H       0.009950000000000     -2.141680000000000     -0.685550000000000
C      -2.447750000000000     -0.494580000000000      1.027970000000000
C      -2.824820000000000     -1.196840000000000     -1.127200000000000
N      -3.727970000000000     -0.193770000000000      0.682820000000000
C      -3.957980000000000     -0.607670000000000     -0.607400000000000
C      -2.638540000000000     -1.765670000000000     -2.491700000000000
H      -4.381550000000000      0.279920000000000      1.291260000000000
H      -4.926590000000000     -0.451830000000000     -1.078680000000000
H       1.107150000000000     -1.649300000000000      1.560150000000000
He      0.780190000000000      0.326510000000000     -0.092400000000000
H      -1.819470000000000     -1.257460000000000     -3.026070000000000
H      -3.550300000000000     -1.661560000000000     -3.096190000000000
H      -2.383310000000000     -2.836930000000000     -2.452560000000000
