32

C      -0.233590000000000     -0.542900000000000      0.997360000000000
C      -1.450190000000000     -1.282710000000000      0.733150000000000
C       0.728450000000000     -1.028710000000000      0.062540000000000
C      -1.197000000000000     -2.136820000000000     -0.364170000000000
C      -2.745640000000000     -1.296860000000000      1.244460000000000
C       2.216360000000000     -0.889330000000000      0.093680000000000
N       0.123450000000000     -1.971000000000000     -0.724160000000000
N      -2.049880000000000     -2.947730000000000     -0.958400000000000
C      -3.672580000000000     -2.152730000000000      0.650620000000000
Cl     -3.182420000000000     -0.276520000000000      2.554500000000000
H       0.532540000000000     -2.396830000000000     -1.545600000000000
C      -3.274410000000000     -2.943560000000000     -0.434920000000000
H      -4.696200000000000     -2.196370000000000      1.023330000000000
H      -4.005260000000000     -3.611930000000000     -0.902230000000000
H      -0.009210000000000     -0.028000000000000      1.931640000000000
He     -0.158930000000000      1.047140000000000     -0.423970000000000
H       2.421450000000000      0.022200000000000      0.675420000000000
C       2.831450000000000     -0.700750000000000     -1.295450000000000
H       2.378510000000000      0.178110000000000     -1.781590000000000
H       2.597850000000000     -1.575380000000000     -1.932360000000000
C       4.344960000000000     -0.547920000000000     -1.205270000000000
H       4.773180000000000     -0.437710000000000     -2.214030000000000
H       4.574250000000000      0.387970000000000     -0.665970000000000
C       4.985270000000000     -1.724720000000000     -0.477140000000000
H       6.072960000000000     -1.574220000000000     -0.388080000000000
H       4.847850000000000     -2.642390000000000     -1.077910000000000
C       4.365050000000000     -1.931220000000000      0.900350000000000
H       4.601590000000000     -1.062720000000000      1.540590000000000
H       4.805770000000000     -2.811240000000000      1.395420000000000
C       2.850950000000000     -2.087200000000000      0.817570000000000
H       2.600910000000000     -3.015430000000000      0.272850000000000
H       2.413750000000000     -2.187380000000000      1.823730000000000
