19

C      -0.852240000000000      0.697240000000000     -1.367160000000000
C      -1.107280000000000      1.280100000000000     -0.094770000000000
N      -0.131800000000000      1.621390000000000     -2.058280000000000
C      -0.438060000000000      2.551930000000000     -0.190220000000000
C      -2.201800000000000      0.949540000000000      0.889110000000000
H       0.290810000000000      1.495320000000000     -2.969300000000000
N       0.137920000000000      2.720000000000000     -1.356490000000000
H      -0.377680000000000      3.331820000000000      0.567330000000000
H      -1.254920000000000     -0.201140000000000     -1.844150000000000
He      0.527280000000000     -0.284190000000000      0.082220000000000
H      -2.436900000000000     -0.116970000000000      0.768550000000000
C      -1.754390000000000      1.167870000000000      2.330380000000000
H      -2.566180000000000      0.911830000000000      3.027460000000000
H      -0.886080000000000      0.538220000000000      2.575100000000000
H      -1.478910000000000      2.218590000000000      2.515940000000000
C      -3.450720000000000      1.766450000000000      0.552780000000000
H      -3.780570000000000      1.587120000000000     -0.481520000000000
H      -4.278860000000000      1.495980000000000      1.225940000000000
H      -3.264140000000000      2.846560000000000      0.664370000000000
