32

C       0.634280000000000      0.788680000000000      1.743070000000000
C      -0.205210000000000      0.610150000000000      0.615200000000000
N       0.338010000000000     -0.226410000000000      2.573900000000000
C      -0.971280000000000     -0.574730000000000      0.935900000000000
H      -0.460320000000000      1.373340000000000     -0.118830000000000
H       0.816680000000000     -0.464600000000000      3.433000000000000
N      -0.606700000000000     -1.058270000000000      2.099380000000000
C      -1.995310000000000     -1.248460000000000      0.077940000000000
H       1.320380000000000      1.606130000000000      1.981270000000000
He      1.723130000000000     -0.011050000000000     -0.153440000000000
H      -2.427280000000000     -2.050140000000000      0.700730000000000
C      -3.127170000000000     -0.278050000000000     -0.306620000000000
H      -2.992140000000000      0.885890000000000      1.522960000000000
H      -2.679950000000000      0.532330000000000     -0.917000000000000
C      -3.760250000000000      0.362590000000000      0.930930000000000
C      -1.302480000000000     -1.887990000000000     -1.128870000000000
H      -0.447670000000000     -2.495610000000000     -0.798900000000000
H      -1.988380000000000     -2.536430000000000     -1.691700000000000
H      -0.919000000000000     -1.116360000000000     -1.816780000000000
H      -4.148230000000000     -0.442890000000000      1.581830000000000
C      -4.891780000000000      1.320700000000000      0.578830000000000
H      -5.335250000000000      1.736250000000000      1.498090000000000
H      -4.478510000000000      2.179630000000000      0.019290000000000
C      -5.957570000000000      0.637660000000000     -0.268950000000000
H      -6.747210000000000      1.353380000000000     -0.549580000000000
H      -6.449390000000000     -0.149170000000000      0.331490000000000
C      -5.341460000000000      0.008030000000000     -1.511970000000000
H      -4.948730000000000      0.807880000000000     -2.165790000000000
H      -6.109430000000000     -0.520440000000000     -2.099680000000000
C      -4.205800000000000     -0.947660000000000     -1.160330000000000
H      -4.611280000000000     -1.811360000000000     -0.600410000000000
H      -3.767900000000000     -1.354250000000000     -2.084530000000000
