14

C       0.090660000000000     -1.666680000000000     -0.078840000000000
C      -0.163270000000000     -1.376860000000000     -1.439510000000000
C       1.392290000000000     -1.402370000000000      0.389910000000000
N       0.811070000000000     -0.924650000000000     -2.279230000000000
H      -1.096970000000000     -1.667950000000000     -1.926290000000000
C       2.286350000000000     -0.858110000000000     -0.508350000000000
H       1.685470000000000     -1.608970000000000      1.419920000000000
N       1.983110000000000     -0.662310000000000     -1.817320000000000
C       3.676050000000000     -0.407320000000000     -0.174830000000000
H      -0.646120000000000     -2.162310000000000      0.558490000000000
He     -0.902810000000000      0.353020000000000     -0.240870000000000
Cl      4.213060000000000     -0.857410000000000      1.455090000000000
H       3.712020000000000      0.688920000000000     -0.253390000000000
H       4.381930000000000     -0.822760000000000     -0.906580000000000
