15

C       0.089540000000000     -1.588580000000000      0.968060000000000
C       0.477700000000000     -1.790930000000000     -0.376230000000000
C       1.116030000000000     -1.341370000000000      1.921250000000000
C       1.856570000000000     -1.725920000000000     -0.714860000000000
H      -0.255300000000000     -2.132600000000000     -1.112120000000000
N       2.387760000000000     -1.285090000000000      1.606510000000000
H       0.846790000000000     -1.199380000000000      2.973890000000000
C       2.741130000000000     -1.465990000000000      0.320060000000000
C       2.310570000000000     -1.930850000000000     -2.124430000000000
H       3.815100000000000     -1.409840000000000      0.108230000000000
H      -0.933770000000000     -1.758530000000000      1.310790000000000
He     -0.254130000000000      0.323520000000000     -0.126580000000000
H       1.942500000000000     -2.887600000000000     -2.526770000000000
H       3.406700000000000     -1.926730000000000     -2.195950000000000
H       1.923880000000000     -1.133330000000000     -2.778580000000000
