20

C      -0.035080000000000     -1.706790000000000      0.081170000000000
C      -1.179860000000000     -1.555010000000000      0.898730000000000
C      -0.129180000000000     -1.592400000000000     -1.335260000000000
C      -2.419500000000000     -1.260290000000000      0.347100000000000
H      -1.061440000000000     -1.679280000000000      1.976430000000000
C      -1.409060000000000     -1.316870000000000     -1.878840000000000
C       1.006670000000000     -1.995140000000000     -2.227760000000000
C      -3.619910000000000     -1.034530000000000      1.159130000000000
C      -2.510390000000000     -1.167030000000000     -1.064450000000000
H      -1.515550000000000     -1.237020000000000     -2.963210000000000
C      -3.647150000000000     -0.750550000000000      2.466240000000000
H      -4.568610000000000     -1.086490000000000      0.612860000000000
H      -3.483450000000000     -0.949780000000000     -1.512550000000000
H      -2.733410000000000     -0.643400000000000      3.057590000000000
H      -4.594630000000000     -0.598380000000000      2.987800000000000
H       0.878220000000000     -2.094390000000000      0.534920000000000
He      0.520740000000000      0.406720000000000     -0.239150000000000
H       0.972200000000000     -1.451080000000000     -3.182320000000000
H       0.932940000000000     -3.072090000000000     -2.453350000000000
H       1.974430000000000     -1.801520000000000     -1.747470000000000
