16

C      -0.342120000000000      1.791130000000000     -0.028240000000000
C       0.977720000000000      1.846330000000000     -0.565990000000000
C      -1.462110000000000      1.762180000000000     -0.893340000000000
C       1.134380000000000      1.848990000000000     -1.941070000000000
C       2.147130000000000      1.876610000000000      0.346030000000000
C      -1.260180000000000      1.784330000000000     -2.296470000000000
H      -2.476700000000000      1.847510000000000     -0.497480000000000
C       0.020270000000000      1.825160000000000     -2.803860000000000
H       2.141270000000000      1.866390000000000     -2.365760000000000
H       1.955210000000000      2.444450000000000      1.264060000000000
I       2.684890000000000     -0.114980000000000      1.068340000000000
H       3.054440000000000      2.247730000000000     -0.143120000000000
H      -2.127180000000000      1.771220000000000     -2.959270000000000
H       0.181710000000000      1.833370000000000     -3.883820000000000
H      -0.493090000000000      1.935470000000000      1.044720000000000
He     -1.021010000000000     -0.323800000000000     -0.167400000000000
