16

C      -0.134290000000000     -1.647830000000000      0.639410000000000
C      -1.300940000000000     -1.432750000000000      1.435390000000000
C      -0.193980000000000     -1.507210000000000     -0.769330000000000
C      -2.466560000000000     -1.051420000000000      0.801660000000000
C      -1.230130000000000     -1.623540000000000      2.918210000000000
C      -1.404530000000000     -1.134790000000000     -1.392450000000000
H       0.664970000000000     -1.777010000000000     -1.389780000000000
C      -2.510970000000000     -0.904860000000000     -0.601870000000000
H      -3.373290000000000     -0.858960000000000      1.377850000000000
H      -0.922120000000000     -2.651570000000000      3.166560000000000
H      -0.483220000000000     -0.947110000000000      3.362000000000000
H      -2.198420000000000     -1.429020000000000      3.397880000000000
H      -1.460820000000000     -1.028320000000000     -2.475800000000000
Cl     -4.002010000000000     -0.426380000000000     -1.326880000000000
H       0.746590000000000     -2.105280000000000      1.096270000000000
He      0.721990000000000      0.341620000000000      0.195670000000000
