16

C       0.444260000000000     -1.790720000000000     -0.288130000000000
C       1.799790000000000     -1.770180000000000     -0.732660000000000
C       0.127010000000000     -1.549900000000000      1.072150000000000
C       2.783700000000000     -1.485750000000000      0.196670000000000
C       2.110190000000000     -2.052270000000000     -2.169950000000000
C       1.166530000000000     -1.276970000000000      1.992620000000000
H      -0.893900000000000     -1.685180000000000      1.437370000000000
C       2.471440000000000     -1.242580000000000      1.550400000000000
H       3.827970000000000     -1.451360000000000     -0.124070000000000
H       1.724180000000000     -3.038870000000000     -2.471850000000000
H       1.634770000000000     -1.306120000000000     -2.825860000000000
H       3.191790000000000     -2.034370000000000     -2.359890000000000
H       0.921500000000000     -1.099640000000000      3.041170000000000
H       3.279990000000000     -1.024300000000000      2.251720000000000
H      -0.333400000000000     -2.162700000000000     -0.960200000000000
He     -0.245420000000000      0.320230000000000     -0.144160000000000
