18

Ir  -0.168570 0.267400 -0.271590
H  -0.761390 0.373160 -3.168580
C  -1.650010 0.099300 -2.595560
C  -2.644450 1.048040 -2.299000
C  -1.870160 -1.254780 -2.280410
C  -3.772740 0.616060 -1.602930
C  -2.536580 2.464700 -2.772740
N  -2.967200 -1.644720 -1.609060
C  -0.972540 -2.334570 -2.785300
C  -3.843760 -0.736700 -1.267840
H  -4.573160 1.301130 -1.320850
H  -3.157020 2.603830 -3.673140
H  -1.503660 2.727590 -3.032750
H  -2.900200 3.172510 -2.013890
H  -0.515020 -2.871750 -1.942370
H  -0.170390 -1.918080 -3.402530
H  -1.569140 -3.049970 -3.371410
Cl  -5.214490 -1.276940 -0.328340
