29

Ir  0.514790 0.434560 -0.035950
H  -0.560400 0.356320 -2.890810
C  -1.363090 0.796430 -2.288500
N  -1.474990 2.121950 -2.263940
C  -2.255400 -0.043170 -1.600070
C  -2.444520 2.647570 -1.518400
C  -3.277440 0.496600 -0.796730
Br  -2.113840 -1.895550 -1.886070
C  -3.345490 1.888980 -0.762580
C  -2.530210 4.086880 -1.477740
C  -4.266620 -0.371570 -0.068110
H  -4.099850 2.394840 -0.159540
N  -2.600430 5.241170 -1.400910
H  -3.716250 -1.276910 0.237270
C  -5.395610 -0.818000 -1.012110
H  -4.968100 -1.279250 -1.915260
H  -5.949910 0.078530 -1.343880
C  -6.341060 -1.788240 -0.314430
H  -7.156630 -2.074920 -0.997560
H  -5.789890 -2.716780 -0.080760
C  -6.905010 -1.197450 0.972760
H  -7.544140 -1.933520 1.486350
H  -7.557140 -0.340840 0.722700
C  -5.791530 -0.722780 1.899770
H  -5.208650 -1.594420 2.246220
H  -6.215100 -0.253810 2.802390
C  -4.855460 0.253670 1.195660
H  -5.426540 1.162730 0.934980
H  -4.045290 0.571090 1.869490
