23

Ir  0.157980 -0.071550 -0.327770
H  1.867470 0.512820 -2.644050
C  1.657830 1.379020 -2.017300
C  2.720920 1.902580 -1.248470
C  0.414240 2.004170 -2.061470
C  3.970160 1.094970 -1.314370
C  2.552980 3.087780 -0.511670
C  0.265370 3.227370 -1.371300
H  -0.390220 1.617600 -2.689080
O  4.138670 0.182150 -2.087770
O  4.896900 1.448600 -0.417580
C  1.313520 3.740320 -0.612740
C  3.606030 3.717430 0.354610
C  -0.956690 3.963980 -1.477940
C  6.102100 0.707650 -0.453930
H  1.169330 4.681620 -0.080150
N  -1.928020 4.589930 -1.575200
H  6.601300 0.820290 -1.427510
H  5.906200 -0.360920 -0.286120
H  6.732830 1.108930 0.347820
H  4.535680 3.903200 -0.200560
H  3.874140 3.061570 1.194900
H  3.240880 4.671340 0.758430
