21

Ir  0.031570 0.041120 -0.082080
H  1.020650 -0.645880 -2.706470
C  1.555070 0.172850 -2.222710
C  2.902870 0.018890 -1.825490
C  0.981850 1.445160 -2.115200
C  3.609900 1.117240 -1.303670
N  3.615900 -1.156440 -1.888030
C  1.733370 2.538960 -1.618350
H  -0.010870 1.618920 -2.532770
C  3.046730 2.405560 -1.196610
S  5.213040 0.606910 -0.868040
C  4.814300 -1.016620 -1.430180
H  1.256980 3.520130 -1.557170
C  3.847730 3.548650 -0.656490
C  5.826530 -2.105950 -1.367720
H  5.347910 -3.041220 -1.683890
H  6.220750 -2.229930 -0.347690
H  6.678910 -1.898070 -2.033350
H  4.742730 3.732700 -1.273730
H  4.197920 3.334740 0.366690
H  3.255110 4.473080 -0.626560
