16

Ir  0.095120 -0.207500 -0.251170
H  0.369480 1.685600 -2.279750
C  1.240880 1.133280 -1.924110
C  1.516010 -0.168030 -2.368080
C  2.382480 1.745660 -1.300750
S  3.177940 -0.605210 -2.016880
C  0.807020 -0.938960 -3.434590
C  3.473090 0.933090 -1.271540
H  2.373060 2.742840 -0.863970
H  1.313340 -0.801420 -4.404100
H  -0.222390 -0.569170 -3.518500
H  0.786080 -2.018000 -3.221510
C  4.805890 1.259070 -0.693220
F  4.712860 2.229350 0.222870
F  5.675100 1.680620 -1.620050
F  5.366840 0.193210 -0.105090
