33

Ir  0.045620 -0.079360 0.068860
H  0.333800 -1.684380 -2.200630
C  1.212430 -1.243600 -1.737540
C  2.244880 -2.082540 -1.194060
C  1.475290 0.114030 -1.945950
N  3.422470 -1.629120 -0.849440
C  2.012500 -3.559270 -0.987410
C  2.781500 0.608390 -1.615620
H  0.823410 0.697650 -2.596980
C  3.710760 -0.307190 -1.049060
C  0.824290 -4.195620 -1.705380
H  1.911100 -3.722800 0.099190
H  2.946690 -4.075220 -1.265540
C  3.183610 1.941470 -1.830120
C  4.999640 0.153220 -0.700640
C  4.450490 2.361000 -1.479220
H  2.462760 2.644830 -2.249700
C  5.382140 1.467960 -0.899480
H  5.684560 -0.577510 -0.264430
H  4.740750 3.402380 -1.645830
C  6.743920 1.956080 -0.501190
H  7.265180 2.428660 -1.348850
H  7.373430 1.135360 -0.130170
H  6.675660 2.716130 0.295190
H  -0.073520 -3.593440 -1.475200
C  1.011800 -4.214190 -3.219160
H  0.123300 -4.623370 -3.725210
H  1.195120 -3.209400 -3.627050
H  1.873630 -4.845500 -3.492210
C  0.579180 -5.604110 -1.176580
H  0.393130 -5.598570 -0.091510
H  -0.288690 -6.070580 -1.668450
H  1.453640 -6.250170 -1.361050
