28

Ir  0.187870 -0.357570 -0.238650
H  -0.253320 1.370980 -2.439330
C  -1.046120 0.739400 -2.045670
N  -2.216670 1.301020 -1.580170
C  -1.241740 -0.629700 -2.251930
C  -3.159300 0.312520 -1.385770
H  -2.156950 2.159390 -1.044840
C  -2.591930 -0.911430 -1.839570
H  -0.600370 -1.283170 -2.838880
C  -4.468380 0.335380 -0.869650
C  -3.359710 -2.076440 -1.780240
N  -5.157940 -0.803980 -0.819270
C  -5.248760 1.593100 -0.471600
C  -4.637490 -1.954970 -1.249980
H  -2.974910 -3.037520 -2.127420
H  -5.286780 -2.834890 -1.171650
C  -4.361900 2.797100 -0.142410
H  -4.983950 3.609340 0.263660
H  -3.599050 2.557530 0.614250
H  -3.862710 3.200190 -1.035870
C  -6.146840 1.945430 -1.667690
H  -6.816060 1.103960 -1.898620
H  -6.760760 2.833330 -1.445010
H  -5.544010 2.159320 -2.564220
C  -6.130570 1.285280 0.741960
H  -6.783170 2.144390 0.963450
H  -6.747880 0.399070 0.548760
H  -5.516340 1.080220 1.631170
