19

Ir  -0.134620 -0.424140 -0.496690
H  1.365160 0.066200 -2.881730
C  1.688750 -0.811760 -2.326850
C  1.110800 -2.074510 -2.188730
N  2.961030 -0.874740 -1.808460
C  2.072760 -2.912680 -1.554250
H  0.172080 -2.391720 -2.636180
C  3.196880 -2.139900 -1.330860
C  3.854880 0.246280 -1.692090
H  1.961720 -3.962710 -1.292330
N  4.407630 -2.442530 -0.704590
H  3.305680 1.108750 -1.297630
H  4.313100 0.499360 -2.662560
H  4.644460 -0.015190 -0.976490
H  4.271110 -3.160920 -0.002290
C  5.533880 -2.743790 -1.568420
H  6.423190 -2.948070 -0.953760
H  5.766330 -1.874000 -2.201000
H  5.361160 -3.607050 -2.240360
