26

Ir  -0.205310 0.170810 0.282080
H  0.552310 -0.056700 2.966000
C  1.213180 -0.295850 2.132990
S  2.789460 0.453260 2.039680
C  1.168090 -1.482020 1.391450
C  3.386250 -0.758910 0.945830
C  2.428320 -1.707490 0.731870
H  0.432060 -2.268960 1.552220
C  4.766470 -0.713040 0.370560
Cl  2.705960 -3.072280 -0.291400
H  4.687830 -1.129620 -0.651120
C  5.728720 -1.616630 1.156580
H  5.319660 -2.638000 1.192970
H  5.772980 -1.255300 2.199470
C  7.123010 -1.614370 0.541500
H  7.801820 -2.241910 1.141300
H  7.075010 -2.080150 -0.459600
C  7.679060 -0.200620 0.410580
H  8.667840 -0.218670 -0.075810
H  7.836380 0.221400 1.419810
C  6.722120 0.701540 -0.361300
H  6.648440 0.346800 -1.405700
H  7.116160 1.729690 -0.410500
C  5.330710 0.703650 0.258880
H  5.382160 1.149940 1.269500
H  4.643860 1.333310 -0.326280
