16

Ir  -0.307160 -0.267620 -0.387370
H  0.970610 -0.636020 -2.920000
C  1.079540 -1.480190 -2.239580
C  0.032840 -2.367270 -1.948540
C  2.342510 -1.838400 -1.747150
C  0.272700 -3.533200 -1.177630
H  -0.940930 -2.246540 -2.421970
O  3.488680 -1.159550 -1.949330
C  2.587380 -2.992130 -0.992480
C  1.519870 -3.859610 -0.685210
Cl  -1.070490 -4.600660 -0.886350
C  4.470540 -1.848480 -1.324230
C  4.001050 -2.977140 -0.728420
H  1.665690 -4.766940 -0.098230
H  5.464900 -1.414420 -1.390540
H  4.585890 -3.706020 -0.172450
