16

Ir  0.277470 -0.228870 -0.294050
H  -0.157870 1.014080 -2.708710
C  0.809100 0.829280 -2.238520
C  1.395800 -0.473550 -2.289010
N  1.615840 1.936610 -2.063320
C  2.801280 -0.525730 -2.059560
H  0.904570 -1.314650 -2.777140
C  2.881350 1.717280 -1.857960
N  3.540450 0.532290 -1.831120
O  3.365250 -1.729410 -2.074180
C  3.707600 2.884600 -1.606010
N  4.360890 3.810020 -1.364910
C  4.761650 -1.798380 -1.855970
H  5.309850 -1.235830 -2.625670
H  5.027640 -1.379200 -0.874120
H  5.020650 -2.862960 -1.902040
