16

Ir  -0.328650 -0.053960 0.251710
H  -1.015900 0.046250 2.981410
C  -1.583520 0.562100 2.207450
S  -3.303670 0.298510 2.066460
C  -1.214440 1.770240 1.607170
C  -3.517000 1.756120 1.132310
C  -2.338820 2.427520 0.990930
H  -0.275810 2.272060 1.841990
C  -4.855340 2.096940 0.559950
H  -2.258650 3.364280 0.437560
H  -5.115180 1.356690 -0.217850
H  -4.757340 3.062150 0.037810
C  -5.975050 2.166010 1.591870
H  -6.934520 2.422710 1.117900
H  -5.757230 2.922030 2.361140
H  -6.103030 1.200110 2.105290
