19

Ir  -0.135000 -0.229110 0.222630
H  -0.439060 2.062980 1.926980
C  -1.267710 1.405120 1.665430
C  -1.367950 0.140970 2.295520
C  -2.442300 1.958460 1.063740
C  -2.564450 -0.588030 2.201330
H  -0.582920 -0.170320 2.982990
C  -2.447070 3.307470 0.600830
C  -3.614310 1.216970 0.953080
C  -3.667840 -0.091550 1.510960
H  -2.635790 -1.571770 2.669460
N  -2.443170 4.420230 0.273200
O  -4.656810 1.744170 0.284220
C  -4.810600 -0.920370 1.310360
N  -5.719660 -1.619600 1.129150
C  -5.834100 2.033710 1.017060
H  -6.291200 1.125120 1.439300
H  -5.620210 2.753530 1.823910
H  -6.535620 2.487830 0.306870
