21

Ir  0.204800 -0.083030 -0.150980
H  1.387110 -1.160710 -2.577480
C  1.858210 -0.239380 -2.222560
N  3.146740 -0.333370 -1.839620
C  1.161350 0.976120 -2.307700
C  3.802300 0.766860 -1.510360
C  1.874530 2.142690 -1.962230
H  0.164250 1.013960 -2.748740
C  3.187370 2.040460 -1.553860
C  5.260690 0.648530 -1.113870
H  1.383870 3.116830 -2.022420
H  3.755740 2.930310 -1.273310
H  5.364770 1.175690 -0.146870
C  5.699190 -0.795090 -0.928120
H  6.745490 -0.837320 -0.588090
H  5.066700 -1.318480 -0.198670
H  5.612760 -1.351110 -1.872700
C  6.153430 1.364310 -2.131570
H  5.876820 2.422000 -2.254440
H  7.208590 1.326010 -1.819090
H  6.073790 0.880970 -3.118220
