25

Ir  -0.213170 -0.403040 -0.313200
H  1.243540 1.484840 -2.244100
C  1.861500 0.650820 -1.915500
C  1.495490 -0.643190 -2.284860
C  3.073930 0.906170 -1.244950
C  2.352400 -1.674700 -1.893570
H  0.648480 -0.814930 -2.948310
C  3.932180 -0.126140 -0.845370
Cl  3.397290 2.608650 -1.045610
F  2.037740 -2.935760 -2.204710
C  3.503710 -1.432440 -1.179790
C  5.274070 -0.049030 -0.089170
H  4.100240 -2.298420 -0.892550
C  5.809180 1.353270 0.210950
H  6.774020 1.244160 0.730640
H  5.981520 1.939440 -0.700840
H  5.140020 1.924700 0.865770
C  5.101650 -0.765890 1.260280
H  4.787440 -1.812700 1.140940
H  6.053920 -0.758330 1.813730
H  4.345270 -0.253430 1.873570
C  6.349250 -0.767180 -0.923040
H  7.315500 -0.729450 -0.396360
H  6.112080 -1.824830 -1.104450
H  6.475100 -0.277660 -1.900750
