19

Ir  -0.181120 -0.219290 -0.242190
H  -0.002480 1.276160 -2.641760
C  -0.956020 0.940340 -2.241990
N  -1.942570 1.855980 -1.925390
C  -1.526170 -0.336270 -2.331160
C  -3.123530 1.187300 -1.710330
H  -1.675840 2.734960 -1.494280
C  -2.920930 -0.183230 -2.002360
H  -1.064730 -1.203980 -2.797280
C  -4.367620 1.650820 -1.260980
C  -4.012860 -1.048560 -1.871980
N  -5.381520 0.798860 -1.129690
C  -4.589790 3.095470 -0.936180
C  -5.210760 -0.494600 -1.433820
H  -3.931810 -2.115140 -2.092050
H  -6.093590 -1.133110 -1.313300
H  -4.453770 3.728630 -1.828710
H  -3.880480 3.452880 -0.171530
H  -5.611970 3.228930 -0.561030
