21

Ir  -0.143390 -0.160460 0.066120
H  -0.929720 -0.303990 2.884330
C  -1.668650 0.185960 2.246400
C  -2.918680 -0.396060 2.015950
C  -1.433940 1.463530 1.725940
F  -3.183930 -1.607240 2.488690
C  -3.852320 0.297510 1.263470
C  -2.465790 2.104390 0.995030
H  -0.512120 1.986620 1.980400
Cl  -5.388830 -0.449900 0.940410
N  -3.628640 1.505870 0.779690
C  -2.249500 3.483420 0.417410
H  -1.400800 3.374550 -0.281390
C  -3.455660 3.986200 -0.359040
H  -3.227610 4.955550 -0.827920
H  -3.755080 3.274890 -1.139950
H  -4.323670 4.116160 0.304880
C  -1.828450 4.481680 1.497430
H  -0.909380 4.171490 2.015900
H  -1.639970 5.470040 1.051370
H  -2.621790 4.598340 2.252830
