16

Ir  -0.204200 0.046930 -0.023030
H  -0.544660 -2.162180 -2.063350
C  -1.494440 -1.689520 -1.812330
C  -1.749280 -0.367260 -2.238870
C  -2.493230 -2.423720 -1.158410
C  -3.014630 0.137050 -1.975730
H  -0.999990 0.190970 -2.804310
C  -3.754920 -1.892800 -0.871920
Cl  -2.162690 -4.053450 -0.663830
C  -3.977330 -0.592710 -1.292060
O  -3.503950 1.381810 -2.235200
H  -4.510350 -2.468770 -0.339150
O  -5.078030 0.187500 -1.097010
C  -4.882820 1.309000 -1.939320
H  -5.197260 2.223830 -1.417240
H  -5.458280 1.171500 -2.877310
