16

Ir  0.277480 -0.228810 -0.293870
H  -0.157460 1.013810 -2.708710
C  0.809480 0.829160 -2.238380
C  1.396390 -0.473540 -2.288690
N  1.616000 1.936650 -2.063060
C  2.801840 -0.525490 -2.059030
H  0.905330 -1.314780 -2.776760
C  2.881500 1.717530 -1.857460
N  3.540800 0.532650 -1.830510
O  3.366010 -1.729090 -2.073550
C  3.707560 2.884960 -1.605360
N  4.360690 3.810450 -1.364120
C  4.762420 -1.797870 -1.855470
H  5.310480 -1.235290 -2.625240
H  5.028440 -1.378590 -0.873660
H  5.021550 -2.862420 -1.901500
