17

Ir  0.255490 -0.365400 0.263830
H  -0.586610 -0.737850 2.898020
C  -1.291180 -0.479620 2.104800
N  -2.295320 -1.358730 1.869050
C  -1.332590 0.828880 1.551490
C  -3.272370 -0.978100 1.111280
N  -2.426860 1.214210 0.835110
H  -0.682470 1.621610 1.925030
Cl  -4.526170 -2.139990 0.760170
C  -3.370370 0.347050 0.577430
C  -4.549590 0.812760 -0.226150
H  -5.026930 -0.024850 -0.750120
H  -4.206850 1.552990 -0.960910
C  -5.610590 1.481920 0.616760
F  -6.053280 0.678060 1.587570
F  -6.663090 1.817960 -0.138600
F  -5.159090 2.594930 1.193550
