19

Ir  -0.266790 -0.195910 0.098960
H  -1.203860 0.261060 2.931350
C  -2.032520 0.579530 2.296010
C  -3.197400 -0.169610 2.182950
C  -1.939160 1.813940 1.620390
C  -4.281330 0.247770 1.388090
H  -3.271590 -1.120550 2.717570
C  -3.039960 2.235080 0.830040
C  -0.893910 2.803570 1.660100
C  -4.193160 1.460950 0.703830
C  -5.522960 -0.592180 1.305850
S  -2.745310 3.799740 0.131980
C  -1.201660 3.904760 0.930640
H  0.042830 2.652520 2.193390
H  -5.026440 1.803970 0.085770
H  -0.590710 4.795520 0.791310
H  -6.113170 -0.520370 2.234450
H  -5.275950 -1.656200 1.164660
H  -6.169650 -0.276730 0.474900
