18

Ir  0.313400 -0.043620 -0.176780
H  -0.098680 1.982280 -2.172310
C  0.896780 1.674750 -1.852330
C  1.410600 0.441120 -2.315840
C  1.819610 2.640620 -1.344570
C  2.779600 0.120740 -2.188790
H  0.771910 -0.180350 -2.943050
C  3.155460 2.315160 -1.178180
C  1.379210 3.962880 -1.035650
C  3.633520 1.046030 -1.569560
C  3.308390 -1.161690 -2.746540
H  3.848700 3.045370 -0.759240
N  1.035530 5.048530 -0.813710
C  5.000280 0.703190 -1.337110
N  6.097670 0.393730 -1.117820
H  2.493610 -1.802900 -3.104320
H  3.890440 -1.717520 -1.995790
H  3.991250 -0.963120 -3.588090
