25

Ir  0.008810 -0.083490 -0.127020
H  -0.797530 1.550550 2.225310
C  -1.655120 1.053480 1.772590
C  -1.812920 -0.329570 1.931880
C  -2.675520 1.810220 1.180680
C  -2.985890 -0.983200 1.507990
H  -1.041580 -0.851730 2.495340
C  -3.813710 1.161350 0.705000
Cl  -2.521030 3.525440 1.063360
C  -3.959900 -0.220420 0.866500
C  -3.259690 -2.446220 1.861460
Cl  -5.092720 2.050010 -0.045640
H  -4.887460 -0.671470 0.511880
C  -3.826590 -3.212910 0.662180
H  -4.053460 -4.250230 0.953670
H  -4.760360 -2.767900 0.288130
H  -3.109520 -3.244730 -0.168080
C  -1.991420 -3.153920 2.342550
H  -1.620570 -2.735610 3.289470
H  -2.200090 -4.221500 2.509770
H  -1.182920 -3.071520 1.604000
C  -4.292300 -2.461100 3.000750
H  -4.500460 -3.496110 3.316640
H  -3.921200 -1.903280 3.873910
H  -5.242190 -2.001950 2.687310
