25

Ir  0.370610 0.387990 -0.304060
H  -1.363230 -1.142750 -2.171190
C  -1.826860 -0.241120 -1.771380
C  -1.328770 1.005490 -2.151130
C  -3.035320 -0.316480 -1.045010
C  -2.044680 2.125210 -1.680630
H  -0.523430 1.092050 -2.879180
C  -3.670710 0.851260 -0.597290
Br  -3.690700 -2.082530 -0.882580
C  -1.603320 3.455530 -2.021450
N  -3.120620 2.036150 -0.924210
C  -4.954990 1.039800 0.230700
N  -1.220760 4.514700 -2.295210
C  -5.712620 -0.220830 0.641620
H  -6.584490 0.087770 1.239310
H  -6.085390 -0.789020 -0.220580
H  -5.106290 -0.891360 1.264260
C  -4.553810 1.788560 1.511510
H  -4.019470 2.717360 1.270140
H  -5.453820 2.037170 2.095100
H  -3.901880 1.161500 2.139130
C  -5.904020 1.920200 -0.597460
H  -6.810330 2.143940 -0.013680
H  -5.418610 2.865110 -0.875130
H  -6.212650 1.404000 -1.520010
