29

Ir  -0.068310 -0.253180 -0.305660
H  1.787770 -0.482610 -2.617140
C  1.894590 0.442500 -2.051870
C  3.085650 0.620700 -1.309700
C  0.935560 1.445690 -2.156630
C  3.989520 -0.566050 -1.371920
C  3.311200 1.822140 -0.609270
C  1.212480 2.683130 -1.536920
H  0.048040 1.319570 -2.778990
O  3.696480 -1.593710 -1.937240
O  5.171470 -0.414820 -0.765390
C  2.361690 2.845000 -0.770010
C  4.518950 2.101810 0.270080
C  0.320420 3.787890 -1.715660
C  6.037380 -1.533560 -0.815580
H  2.522600 3.803170 -0.277900
N  -0.372640 4.703930 -1.874470
H  5.581530 -2.399120 -0.312920
H  6.955400 -1.232260 -0.297840
H  6.256540 -1.812380 -1.856260
H  4.846290 1.140380 0.683140
C  5.670050 2.663080 -0.567320
H  6.560600 2.829800 0.059060
H  5.945330 1.972570 -1.376220
H  5.389270 3.627710 -1.019790
C  4.207150 3.016190 1.452430
H  3.327950 2.667830 2.014430
H  5.067030 3.037550 2.139200
H  4.018960 4.057330 1.147370
