22

Ir  0.266910 -0.135780 -0.377680
H  0.387680 0.601230 -3.242200
C  1.163620 1.071110 -2.633790
C  2.348410 0.387530 -2.347770
C  1.032660 2.436400 -2.274660
C  3.327830 1.083660 -1.601160
C  2.691870 -0.942510 -2.937590
N  1.991180 3.072750 -1.618870
C  -0.190280 3.213250 -2.637890
C  3.096310 2.409970 -1.261940
O  4.452140 0.389990 -1.307300
H  3.483810 -0.809290 -3.692480
H  1.822280 -1.404340 -3.420000
H  3.098330 -1.630310 -2.183680
H  -0.902540 3.162020 -1.799960
H  -0.677910 2.809370 -3.533930
H  0.076150 4.266690 -2.797170
H  3.837880 2.983580 -0.697960
C  5.481900 1.050480 -0.628850
H  5.867240 1.908880 -1.207260
H  5.154420 1.411400 0.361840
H  6.288680 0.319520 -0.489210
