28

Ir  0.238150 0.342200 -0.071100
H  -0.348130 0.727220 -2.884040
C  -1.236490 0.795800 -2.251070
C  -1.897460 2.015780 -2.077410
C  -1.811560 -0.345920 -1.680460
F  -1.391440 3.124770 -2.600280
C  -3.062180 2.047940 -1.327670
C  -3.032810 -0.217490 -0.974030
H  -1.378320 -1.326420 -1.880820
Cl  -3.848050 3.576400 -1.062570
N  -3.608960 0.964920 -0.807900
C  -3.719710 -1.431130 -0.400540
H  -2.979760 -1.926030 0.255340
C  -4.096400 -2.429770 -1.507980
H  -3.199090 -2.730480 -2.072670
H  -4.758220 -1.915010 -2.227620
C  -4.803250 -3.663540 -0.955650
H  -5.106770 -4.321550 -1.786100
H  -4.092160 -4.245330 -0.344300
C  -6.007600 -3.294240 -0.098170
H  -6.466860 -4.201330 0.327380
H  -6.778350 -2.823010 -0.734710
C  -5.614210 -2.319810 1.005970
H  -4.919110 -2.822380 1.704080
H  -6.497790 -2.034990 1.600020
C  -4.946950 -1.076590 0.433020
H  -5.659210 -0.526810 -0.205150
H  -4.664590 -0.371730 1.228060
