16

Ir  0.261520 -0.161210 -0.234380
H  -0.025990 0.810640 -2.901680
C  0.956100 0.361350 -2.754540
C  1.264040 -0.863470 -3.366040
C  1.945120 1.051310 -2.038630
C  2.544780 -1.386370 -3.260380
H  0.476790 -1.394220 -3.903040
C  3.246730 0.528000 -1.942600
H  1.738090 2.037610 -1.621740
C  3.533220 -0.690990 -2.553960
H  2.789960 -2.340670 -3.732610
C  4.346180 1.216170 -1.180090
H  4.543910 -1.105350 -2.490220
H  4.498370 0.745230 -0.197830
Cl  4.059500 2.948170 -0.852010
H  5.293320 1.154290 -1.733200
