25

Ir  -0.544590 -0.314530 -0.564190
H  1.092550 0.292570 -2.834520
C  1.284960 -0.693480 -2.412580
C  0.420840 -1.788350 -2.571350
C  2.513010 -0.973480 -1.800160
C  0.778420 -3.079410 -2.111820
H  -0.496750 -1.665250 -3.148600
O  3.499890 -0.084850 -1.569780
C  2.896440 -2.245310 -1.355800
C  1.998820 -3.319290 -1.507060
H  0.072210 -3.900700 -2.251690
C  4.521660 -0.750940 -0.964380
C  4.220430 -2.073030 -0.819350
H  2.263380 -4.320420 -1.159680
C  5.707510 0.074340 -0.597180
H  4.861190 -2.831410 -0.377160
H  5.341540 0.829140 0.124300
C  6.778330 -0.764650 0.085740
H  7.628360 -0.133400 0.383530
H  6.392810 -1.258460 0.989790
H  7.160020 -1.543840 -0.593080
C  6.259700 0.821930 -1.812110
H  5.479230 1.427410 -2.293370
H  7.079650 1.492180 -1.512430
H  6.650730 0.113370 -2.559390
