20

Ir  -0.248480 -0.410170 0.183710
H  -0.914770 -0.199460 3.000150
C  -1.812040 -0.251810 2.382530
C  -2.675500 -1.359420 2.442940
C  -2.159660 0.865580 1.609070
C  -3.865830 -1.349360 1.733270
H  -2.406100 -2.223440 3.055150
C  -3.383270 0.882400 0.904670
H  -1.543110 1.764370 1.656010
C  -4.219550 -0.225140 0.972880
H  -4.541720 -2.206890 1.779870
C  -3.747660 2.072670 0.055410
H  -5.172030 -0.213040 0.434910
H  -4.836590 2.060810 -0.153430
H  -3.207980 1.995900 -0.900590
O  -3.360760 3.304650 0.597720
C  -4.067710 3.674280 1.744130
H  -5.152270 3.770930 1.539620
H  -3.937260 2.948430 2.568130
H  -3.683320 4.650270 2.071420
