20

Ir  0.288210 -0.057040 -0.002010
H  0.588570 -0.490270 2.882370
C  1.380550 -1.004520 2.338530
C  2.596890 -0.384410 2.081470
C  1.302010 -2.379190 1.997690
O  2.955280 0.891970 2.372590
C  3.658130 -1.028890 1.456290
C  2.371750 -3.026600 1.365900
O  0.229670 -3.133420 2.294240
C  4.337410 0.984960 2.068120
O  4.686910 -0.139610 1.290210
C  3.568920 -2.355760 1.085880
H  2.254820 -4.082730 1.120760
H  4.916910 0.986180 3.013150
H  4.526070 1.906050 1.495480
H  4.399940 -2.862410 0.593660
C  -0.715870 -2.616480 3.208340
H  -0.229340 -2.374850 4.169650
H  -1.228120 -1.729440 2.808840
H  -1.448890 -3.416440 3.371210
