18

Ir  -0.062000 0.337080 -0.371820
H  -0.399990 -0.478240 -3.146370
C  -1.376880 -0.484190 -2.658300
C  -2.160650 0.670000 -2.587930
C  -1.913310 -1.691440 -2.170240
N  -3.381220 0.713550 -2.054270
H  -1.779340 1.608220 -3.003950
C  -1.161210 -2.975580 -2.298120
C  -3.183700 -1.633910 -1.594320
C  -3.870540 -0.419060 -1.552470
H  -0.658150 -3.036310 -3.272940
H  -1.826970 -3.842310 -2.183340
H  -0.377680 -3.025870 -1.525920
H  -3.646360 -2.531110 -1.179200
C  -5.263470 -0.304300 -0.993650
H  -6.013240 -0.598080 -1.743160
H  -5.441470 0.738550 -0.705560
Cl  -5.555090 -1.338200 0.438620
