17

Ir  0.213080 0.202880 -0.098940
H  0.989520 -1.509710 2.241020
C  1.776850 -1.702150 1.504460
C  2.930050 -0.922330 1.520160
C  1.682090 -2.732350 0.567320
C  3.976390 -1.113050 0.608430
F  3.022550 0.042530 2.440690
Br  0.209040 -3.902650 0.631990
C  2.700120 -2.946810 -0.362600
C  3.829240 -2.138670 -0.332220
O  5.089400 -0.351570 0.525070
H  2.614800 -3.750210 -1.094950
H  4.640430 -2.282030 -1.048190
C  5.651310 0.212810 1.689750
H  5.105630 1.110030 2.016910
H  5.675650 -0.514880 2.517170
H  6.681620 0.490490 1.429440
