19

Ir  0.300310 -0.217740 0.116530
H  -0.731340 -0.126590 2.812590
C  -1.480180 0.157040 2.072610
C  -2.627430 -0.650160 1.869560
C  -1.350430 1.404680 1.442220
C  -3.580660 -0.160960 1.016080
H  -2.743850 -1.616710 2.360430
C  -2.366780 1.895610 0.583620
H  -0.513950 2.044790 1.723960
C  -3.452700 1.084510 0.390080
O  -4.740570 -0.751610 0.591500
H  -2.280810 2.861210 0.087390
O  -4.535610 1.280630 -0.424870
C  -5.409680 0.210630 -0.182090
H  -5.744340 -0.232720 -1.135470
C  -6.639670 0.714660 0.580400
F  -6.294910 1.258220 1.741140
F  -7.473040 -0.296010 0.814230
F  -7.280560 1.627320 -0.144260
