20

Ir  0.102340 -0.375720 -0.340580
H  0.522100 -0.695310 -3.088790
C  1.264200 -0.520550 -2.309930
S  2.667920 -1.592890 -2.302710
C  1.544130 0.744970 -1.755780
C  3.626240 -0.401470 -1.460130
C  2.921040 0.810000 -1.283220
H  0.960540 1.624950 -2.024220
C  4.928930 -0.579010 -0.989660
C  3.595800 1.885700 -0.681490
C  5.551100 0.489270 -0.354160
H  5.443170 -1.533090 -1.119350
C  4.895320 1.717600 -0.210530
O  2.985430 3.093230 -0.524200
H  6.570460 0.376120 0.022390
H  5.385590 2.569000 0.265210
C  2.806690 3.846810 -1.701100
H  3.779810 4.129770 -2.139520
H  2.220510 3.301190 -2.457550
H  2.256470 4.754450 -1.422430
