38
Azulene_H11_Int1_Sub31.log	Energy: -667467.2840108
C          0.74068       -1.44505        0.92456
C          0.24087       -1.00468        2.20334
C          0.00057       -1.61566       -0.27657
C         -1.00411       -0.56920        2.55840
H          0.99899       -1.00560        2.99217
C         -1.35217       -1.34248       -0.51726
H          0.54258       -2.10413       -1.09258
C         -2.17308       -0.45575        1.74441
H         -1.12865       -0.25901        3.59892
C         -2.34005       -0.76048        0.42722
C         -2.02474       -1.55529       -1.71633
H         -3.05446       -0.07767        2.27540
C         -3.58023       -0.63083       -0.31439
C         -3.36885       -1.13181       -1.60325
H         -1.57033       -1.97312       -2.61531
N         -4.73680       -0.12833        0.18360
H         -4.11257       -1.17798       -2.39700
O          2.73366       -0.64217       -0.97256
C          3.76581       -0.90695       -0.22046
O          3.80546       -0.75561        0.98828
C          4.94391       -1.42690       -1.01423
H          4.62435       -2.21289       -1.71253
H          5.35974       -0.60533       -1.61666
H          5.71415       -1.80570       -0.33189
H          1.71509       -1.93467        0.97216
Pd         1.23974        0.33590       -0.11436
O          1.45781        2.38199       -0.75361
C          0.39969        2.65332       -0.12751
O         -0.19085        1.71561        0.49900
C         -0.17911        4.03030       -0.13942
H         -0.86064        4.11749       -0.99977
H         -0.75424        4.21132        0.77744
H          0.61827        4.77492       -0.25586
H         -4.67979        0.40962        1.03596
C         -5.90687        0.03798       -0.62952
H         -6.73053        0.42134       -0.01347
H         -6.22769       -0.92791       -1.05351
H         -5.74708        0.73853       -1.47125
