37
Azulene_H16_Int1_Sub16.log	Energy: -679913.1730339
C         -0.38747       -1.30973       -1.22554
C          0.88229       -0.86041       -1.65477
C         -0.32644       -1.60681        0.16878
C          1.75793       -0.88597       -0.57042
H          1.13068       -0.50350       -2.65081
C          1.04268       -1.39002        0.59665
H         -1.03093       -2.23874        0.71183
C          3.10803       -0.42246       -0.61411
C          1.49201       -1.64090        1.87608
C          4.03130       -0.45075        0.42550
O          3.43319        0.05395       -1.81803
C          2.78124       -1.44317        2.39742
H          0.74212       -2.03661        2.56849
C          3.87911       -0.91450        1.74404
H          5.02365       -0.06157        0.19576
H          2.92931       -1.72370        3.44316
H          4.78631       -0.83290        2.35091
O         -2.97748       -0.66050        0.49290
C         -3.71613       -0.94071       -0.54392
O         -3.38210       -0.80663       -1.70819
C         -5.08339       -1.45701       -0.14997
H         -4.99538       -2.24269        0.61334
H         -5.66293       -0.63421        0.29493
H         -5.60635       -1.83648       -1.03587
H         -1.26530       -1.46309       -1.85676
Pd        -1.27455        0.30289        0.22641
O         -1.73821        2.38009        0.54925
C         -0.51237        2.63158        0.41628
O          0.28007        1.65939        0.19025
C          0.01827        4.02084        0.55001
H         -0.72299        4.74362        0.18598
H          0.20178        4.22731        1.61576
H          0.96561        4.12255        0.00610
C          4.71225        0.57011       -2.08107
H          4.94083        1.43382       -1.43485
H          5.49457       -0.19705       -1.95533
H          4.69887        0.89924       -3.12697
