23

C  0.494430 -1.374210 1.326750
C  -0.619110 -0.961880 2.063820
C  0.631530 -1.630200 -0.069470
C  -1.911520 -0.715750 1.599270
H  -0.450330 -0.815900 3.133180
C  -0.383530 -1.567800 -1.077770
H  1.536430 -2.176590 -0.344990
C  -2.404010 -0.811270 0.304870
H  -2.649840 -0.407280 2.346730
C  -1.695710 -1.192150 -0.940050
H  -0.060200 -1.847610 -2.085920
C  -3.732880 -0.543310 -0.072930
C  -2.647050 -1.126280 -1.992700
O  -4.659890 -0.167220 0.808550
C  -3.874790 -0.736390 -1.474010
H  -2.433600 -1.350610 -3.037470
H  -4.790480 -0.602050 -2.048170
H  1.421710 -1.560420 1.878410
Pd  1.344080 0.383110 -0.169780
C  -5.956940 0.083520 0.331550
H  -5.962930 0.903150 -0.407280
H  -6.398860 -0.817510 -0.127400
H  -6.562710 0.377680 1.197260
