31

C  1.347390 -1.335450 1.447150
C  0.306240 -0.831360 2.252440
C  0.858400 -1.539640 0.118330
C  -0.855770 -0.730030 1.481820
H  0.400330 -0.524140 3.293050
C  -0.552120 -1.206840 0.133190
H  1.314310 -2.195960 -0.624920
C  -2.098470 -0.221270 1.914000
C  -1.405920 -1.326110 -0.937250
C  -3.286130 -0.106680 1.230040
H  -2.115760 0.126420 2.952080
C  -2.775960 -1.002960 -1.039870
H  -0.952500 -1.721610 -1.852320
C  -3.640090 -0.453860 -0.105990
H  -4.096560 0.324440 1.822080
H  -3.199790 -1.212950 -2.021640
C  -5.103170 -0.172930 -0.493630
H  2.363170 -1.575570 1.768740
Pd  1.878220 0.296430 -0.208390
C  -5.430500 -0.568050 -1.934530
H  -6.487120 -0.341770 -2.140290
H  -4.827390 -0.008410 -2.665330
H  -5.285200 -1.644310 -2.112550
C  -6.033130 -0.971380 0.434790
H  -5.907890 -0.698370 1.492370
H  -7.083970 -0.781720 0.166450
H  -5.846940 -2.052200 0.341750
C  -5.379790 1.332400 -0.344850
H  -6.422020 1.551640 -0.624080
H  -5.231640 1.687520 0.685010
H  -4.719120 1.919050 -1.001120
