18

C  -0.678840 -0.441880 1.867070
C  0.285390 -0.954530 0.964610
C  -0.398960 0.717050 2.663950
C  1.524990 -0.261370 0.895780
H  0.157270 -1.933580 0.499150
C  0.798230 1.385240 2.583200
H  -1.172550 1.063440 3.351710
C  1.741040 0.869010 1.673320
C  2.743330 -0.362510 0.163020
H  1.018090 2.271250 3.179290
O  2.959170 1.361450 1.418050
C  3.070690 -1.363970 -0.905970
N  3.573190 0.592290 0.475710
H  -1.589830 -1.003250 2.084540
Pd  -1.177030 0.228460 -0.185850
F  4.350320 -1.351180 -1.234000
F  2.350620 -1.114440 -2.002190
F  2.748350 -2.592320 -0.489790
