20

C  0.261650 -0.880510 1.359480
C  -0.879670 -0.203720 1.802730
C  0.095560 -1.649900 0.168180
C  -2.078030 -0.229400 1.117650
O  -1.012550 0.560800 2.912430
C  -1.140550 -1.693200 -0.506830
H  0.886630 -2.328620 -0.153420
C  -2.257600 -0.962960 -0.069570
O  -2.992040 0.523300 1.788000
C  -2.241110 1.239680 2.756340
Cl  -1.279200 -2.628530 -1.946130
O  -3.376570 -1.022210 -0.786960
H  -2.786560 1.251120 3.710390
H  -2.054950 2.268630 2.390710
H  1.168610 -0.932270 1.968660
Pd  1.093770 0.314930 -0.350460
C  -4.334510 0.012550 -0.681070
H  -4.851080 -0.009000 0.289050
H  -3.862200 0.997950 -0.818850
H  -5.056470 -0.163440 -1.487690
