19

C  0.269070 -1.477540 0.307730
C  1.610790 -1.141870 0.072300
C  -0.229470 -1.154920 1.600920
C  2.436080 -0.516880 1.012020
O  2.284320 -1.348050 -1.077400
C  0.610970 -0.535830 2.577150
H  -1.196070 -1.557360 1.910490
C  1.917080 -0.209990 2.292800
C  3.695600 -0.345590 0.353020
C  3.542690 -0.864160 -0.901660
H  0.194950 -0.327110 3.564520
H  2.546390 0.275430 3.041550
H  4.600390 0.107280 0.751170
C  4.459810 -0.992060 -2.054040
H  -0.313120 -2.058530 -0.414290
Pd  -0.969410 0.413410 0.226980
H  4.059480 -0.462310 -2.932660
H  4.587850 -2.048510 -2.337740
H  5.442400 -0.572120 -1.806310
