27

C  -0.287180 -1.396290 -0.851150
C  0.898530 -0.866670 -1.438020
C  -0.358060 -1.688310 0.533390
C  2.044090 -0.600450 -0.713570
H  0.863720 -0.656200 -2.505480
C  0.843080 -1.461280 1.247270
H  -1.179600 -2.260580 0.967050
C  1.994410 -0.927950 0.678170
C  3.284000 0.029710 -1.333350
O  1.030580 -1.693130 2.547460
C  2.873930 -0.868750 1.809030
N  2.302700 -1.319430 2.889130
H  3.901470 -0.516350 1.878540
H  -1.111340 -1.675320 -1.512010
Pd  -1.317480 0.269690 0.245440
C  3.094710 0.308920 -2.824650
H  4.009650 0.765350 -3.230630
H  2.903710 -0.612750 -3.394820
H  2.265120 1.008520 -3.006320
C  3.556510 1.368610 -0.627650
H  3.776470 1.241020 0.441090
H  4.420970 1.868180 -1.091850
H  2.679740 2.027640 -0.703620
C  4.481490 -0.918850 -1.170520
H  5.384550 -0.461540 -1.603550
H  4.697470 -1.149970 -0.118530
H  4.299400 -1.871640 -1.690420
