32

C  0.789520 0.291480 -1.434030
C  -0.503820 0.670040 -1.054760
C  1.833640 1.189930 -1.079200
C  -0.798450 1.850630 -0.365430
O  -1.630560 -0.040680 -1.264000
C  1.527450 2.410910 -0.396190
H  2.826410 1.072300 -1.516960
C  0.244720 2.745260 -0.030410
C  -2.213920 1.823730 -0.155410
C  -2.660040 0.658900 -0.716930
Cl  2.842350 3.470330 -0.024760
H  0.048330 3.673480 0.507240
H  -2.823920 2.566780 0.350580
C  -4.000740 0.026050 -0.814630
H  0.980950 -0.588230 -2.057580
Pd  1.915760 -0.422930 0.409670
H  -4.191010 -0.156640 -1.890330
C  -5.107810 0.933250 -0.280940
H  -5.100990 1.894310 -0.819910
H  -4.898910 1.162710 0.779550
C  -6.474430 0.266640 -0.392620
H  -7.249580 0.927800 0.026270
H  -6.725330 0.133280 -1.460340
C  -6.496510 -1.090490 0.302390
H  -7.480640 -1.569360 0.175990
H  -6.359970 -0.943170 1.389170
C  -5.390540 -1.999750 -0.221840
H  -5.589260 -2.242620 -1.281290
H  -5.389340 -2.959210 0.319450
C  -4.021810 -1.340030 -0.109600
H  -3.765400 -1.185750 0.953900
H  -3.237430 -1.985710 -0.532630
