19

C  -0.025770 -0.987350 1.692610
C  -0.070550 -1.502490 0.359680
C  1.131990 -0.425050 2.223460
C  1.096930 -1.536420 -0.467420
H  -0.900330 -2.147120 0.063840
C  2.220960 -0.410970 1.365710
H  1.175300 -0.006100 3.227560
C  2.249780 -0.934780 0.055670
O  0.973550 -2.142510 -1.635590
O  3.448640 0.099260 1.607620
N  3.519080 -0.725710 -0.469280
C  4.153980 -0.127070 0.470050
H  5.186990 0.218140 0.467350
H  -0.946680 -1.072650 2.274210
Pd  -0.888820 0.448140 -0.142120
C  2.028810 -2.102600 -2.578870
H  2.279380 -1.064960 -2.843120
H  2.931730 -2.591270 -2.186670
H  1.660280 -2.637640 -3.461850
