19

C  0.105990 0.700740 -1.057580
C  1.468090 0.286930 -0.789540
C  -0.525790 -0.176250 -1.956660
C  1.829420 -0.865340 -1.517680
C  2.402620 0.848700 0.098650
H  -1.438730 0.039920 -2.514040
S  0.530700 -1.438500 -2.533210
C  3.090070 -1.451650 -1.385910
C  3.659250 0.276690 0.221840
C  2.011620 2.039040 0.934530
C  4.000080 -0.863560 -0.520380
H  3.352230 -2.348610 -1.950020
H  4.381440 0.717530 0.909700
H  4.995400 -1.298310 -0.407430
H  -0.326770 1.668270 -0.774650
Pd  -1.264870 -0.588660 0.036170
F  3.023810 2.467690 1.690620
F  0.998610 1.738150 1.752340
F  1.616650 3.062410 0.172640
