19

C  0.369320 -0.592190 1.692350
C  -0.491220 0.335400 2.348240
C  -0.079830 -1.340080 0.574440
C  -1.739310 0.492470 1.818350
H  -0.153090 0.906770 3.212020
C  -1.413170 -1.191110 0.081380
H  0.520010 -2.174640 0.207590
C  -2.194990 -0.250820 0.699470
O  -2.726890 1.319030 2.210890
C  -1.885800 -1.952300 -1.122440
O  -3.446680 0.128030 0.405800
C  -3.757640 1.224700 1.249000
H  -4.720570 1.042110 1.749340
H  -3.793370 2.149930 0.646900
H  1.336410 -0.817800 2.148190
Pd  1.116710 0.348790 -0.188150
F  -1.096800 -2.998890 -1.370460
F  -1.885250 -1.184390 -2.217990
F  -3.128990 -2.406140 -0.959480
