21

C  0.105950 -1.036720 1.452760
C  -1.255560 -1.128280 1.264490
C  0.937390 -1.499020 0.384560
C  -1.805480 -1.675660 0.100040
O  -2.260590 -0.675470 2.053180
C  0.351080 -2.093490 -0.769670
H  1.996870 -1.666490 0.577790
C  -1.025260 -2.180040 -0.937310
O  -3.131650 -1.577540 0.147070
C  -3.418820 -0.630180 1.248190
Cl  1.394640 -2.736130 -1.980840
H  -1.471600 -2.596450 -1.839260
H  -4.285290 -1.044760 1.783410
N  -3.653920 0.662670 0.798600
H  0.576270 -0.640080 2.353550
Pd  0.953620 0.602500 -0.237220
H  -2.825470 1.023190 0.317770
C  -4.882840 0.883270 0.073370
H  -5.010270 1.958940 -0.113930
H  -5.739940 0.556120 0.683190
H  -4.935280 0.352410 -0.895750
