21

C  0.294550 -0.939730 1.228870
C  -0.814140 -0.247770 1.754000
C  0.025930 -1.681910 0.036820
C  -2.043060 -0.220430 1.140280
O  -0.856040 0.493810 2.883160
C  -1.233620 -1.664060 -0.563420
H  0.792270 -2.345770 -0.365470
C  -2.325290 -0.913950 -0.055530
O  -2.898650 0.547100 1.879610
C  -2.067060 1.222420 2.805780
Cl  -1.471810 -2.538200 -2.046790
N  -3.518950 -0.891650 -0.687010
H  -2.551630 1.245010 3.791950
H  -1.856410 2.246800 2.440000
H  1.202430 -1.081990 1.823530
Pd  1.134630 0.346650 -0.326360
H  -3.524280 -1.375290 -1.577030
C  -4.598040 0.023710 -0.415040
H  -5.461140 -0.267210 -1.027610
H  -4.335820 1.068920 -0.655900
H  -4.897140 -0.014890 0.640240
