18

C  -0.085030 0.943260 -1.004560
C  -0.254820 -0.263700 -1.723570
C  -1.170270 1.488410 -0.239470
C  -1.532070 -0.887660 -1.662930
H  0.498220 -0.585370 -2.445580
C  -2.397160 0.876370 -0.169500
C  -0.906110 2.753660 0.534640
C  -2.541110 -0.322350 -0.893110
C  -2.162700 -2.050420 -2.197870
H  -3.216610 1.289640 0.417960
O  -3.639240 -1.075810 -0.966820
H  -1.759940 -2.813460 -2.863300
N  -3.394260 -2.150030 -1.782050
H  0.823380 1.542150 -1.136790
Pd  0.817030 -0.707860 0.161020
F  -2.027880 3.256730 1.053580
F  -0.359450 3.688250 -0.241800
F  -0.062370 2.525190 1.543510
