27

C  0.331570 -1.525560 -0.559930
C  0.359200 -1.577880 0.854060
C  -0.844950 -1.108190 -1.258220
C  -0.844670 -1.225260 1.520500
H  1.187420 -2.055500 1.380890
C  -2.008860 -0.719260 -0.626380
H  -0.789650 -1.090320 -2.346110
C  -1.952630 -0.803580 0.792900
C  -1.294540 -1.138870 2.871460
C  -3.246890 -0.213020 -1.350150
O  -2.941290 -0.500650 1.644530
H  -0.760710 -1.369610 3.793030
N  -2.523970 -0.714450 2.934150
H  1.157330 -1.931680 -1.148020
Pd  1.339090 0.296060 0.201640
C  -3.045070 -0.210670 -2.864560
H  -3.957220 0.162480 -3.353240
H  -2.214550 0.445940 -3.165370
H  -2.849680 -1.220900 -3.255820
C  -4.442000 -1.117480 -1.010430
H  -4.651050 -1.128960 0.067890
H  -5.343210 -0.752130 -1.526760
H  -4.257810 -2.151800 -1.339440
C  -3.525670 1.227070 -0.887410
H  -4.396110 1.628980 -1.428970
H  -3.742400 1.271300 0.188570
H  -2.656150 1.870710 -1.084780
