26

C  0.825320 -1.230770 1.243510
C  0.563770 -0.481590 2.433820
C  -0.191100 -1.454030 0.266870
C  -0.663660 0.090540 2.658110
H  1.375130 -0.366820 3.154520
C  -1.453400 -0.859710 0.504500
C  0.014850 -2.429610 -0.851600
C  -1.660340 -0.098390 1.679720
H  -0.859950 0.684000 3.552890
C  -2.696890 -0.826430 -0.232920
N  -2.938900 0.378870 1.675220
C  -3.593360 -0.035260 0.534310
C  -3.146090 -1.369970 -1.444650
H  -3.333840 0.977190 2.386170
C  -4.900670 0.221730 0.122280
C  -4.447370 -1.114390 -1.860390
H  -2.488930 -1.986720 -2.057990
C  -5.314260 -0.327230 -1.085980
H  -5.575480 0.832080 0.726390
H  -4.802810 -1.533150 -2.804210
H  -6.332300 -0.143610 -1.436830
H  1.732810 -1.835090 1.212120
Pd  1.321870 0.329040 -0.183660
H  -0.279180 -1.995550 -1.817870
H  -0.606270 -3.324780 -0.683590
H  1.068630 -2.722390 -0.925820
