16

C  0.177200 -1.171890 1.302080
C  -0.789830 -0.838490 2.410050
C  -0.584590 -1.521890 0.173790
H  -0.656830 -1.566220 3.232320
H  -0.610110 0.157750 2.849910
C  -2.133840 -0.939960 1.768880
Cl  -0.108650 -2.551380 -1.113480
C  -2.017710 -1.329850 0.482080
H  -3.074800 -0.676070 2.250690
O  -3.003620 -1.532420 -0.398940
H  1.192210 -1.519180 1.495220
Pd  0.346540 0.456370 -0.016550
C  -2.968880 -0.701630 -1.546020
H  -3.029410 0.360010 -1.255890
H  -2.052530 -0.864220 -2.137030
H  -3.839350 -0.969940 -2.157260
