28

C  0.824080 -0.962350 1.687570
C  0.395190 -0.095810 2.837760
C  -0.283020 -1.142690 0.846420
H  0.493550 -0.660030 3.784170
H  1.020290 0.806910 2.954860
C  -1.025070 0.233280 2.512300
H  -0.355600 -1.915030 0.077790
C  -1.418750 -0.366360 1.365190
H  -1.637110 0.918270 3.102010
C  -2.721000 -0.214680 0.645390
H  1.719300 -1.587500 1.712680
Pd  1.144260 0.214130 -0.063680
H  -3.388170 0.381870 1.293500
C  -3.409090 -1.558550 0.378490
H  -3.570310 -2.090020 1.330290
H  -2.736760 -2.194810 -0.225280
C  -4.726000 -1.376580 -0.367730
H  -5.184860 -2.357760 -0.569880
H  -5.435730 -0.830330 0.279760
C  -4.531460 -0.600420 -1.665800
H  -5.498730 -0.449220 -2.171510
H  -3.910320 -1.199620 -2.356130
C  -3.847040 0.738790 -1.413840
H  -4.518290 1.383870 -0.818130
H  -3.672940 1.268050 -2.364510
C  -2.530950 0.562350 -0.666250
H  -1.815170 0.013320 -1.305950
H  -2.061920 1.534630 -0.447080
