19

C  -0.038390 -1.545200 0.524410
C  0.044820 -1.610780 -0.878720
O  1.213800 -1.436550 1.033080
C  1.442530 -1.512020 -1.189180
H  -0.761420 -1.912070 -1.546340
C  2.095100 -1.391870 0.003110
H  1.893900 -1.504700 -2.176760
C  3.527460 -1.201860 0.364630
H  -0.846730 -1.797910 1.216620
Pd  -0.744900 0.355850 -0.220750
H  3.803130 -2.069640 0.993560
C  4.411920 -1.200770 -0.874430
H  5.469260 -1.109800 -0.587170
H  4.299750 -2.126460 -1.458470
H  4.167990 -0.348780 -1.528380
C  3.714140 0.062240 1.207790
H  3.094170 0.027410 2.114230
H  4.767370 0.162620 1.509510
H  3.414040 0.951760 0.635500
