19

C  -0.768440 0.704370 -1.341470
C  -0.960220 1.413890 -0.122980
N  0.053690 1.530600 -2.088460
C  -2.027000 1.229280 0.918580
N  -0.222650 2.576290 -0.152870
C  0.371100 2.595330 -1.315650
H  0.468810 1.288940 -2.979030
H  1.063360 3.367380 -1.654540
H  -1.327080 -0.120050 -1.793900
Pd  0.486300 -0.381710 0.030460
H  -2.410560 0.204390 0.816640
C  -1.464020 1.404960 2.324210
H  -2.265210 1.315020 3.072810
H  -0.705060 0.638960 2.543530
H  -0.994520 2.394180 2.430940
C  -3.158360 2.219600 0.633830
H  -3.577920 2.073620 -0.373270
H  -3.971810 2.089560 1.363760
H  -2.791420 3.254800 0.705010
