33

C  0.947330 -1.057950 -1.216270
C  1.265030 -1.719900 -0.001840
N  -0.396470 -0.843740 -1.255970
C  0.005900 -1.913890 0.694110
H  2.184430 -2.277860 0.173080
C  -0.995300 -1.314070 -0.098850
H  -0.852310 -0.260340 -1.943400
C  -0.339110 -2.512170 1.910410
C  -2.339440 -1.237600 0.289840
C  -1.670920 -2.479510 2.298260
H  0.421620 -2.984240 2.535440
C  -2.644780 -1.847540 1.505600
C  -3.329120 -0.474040 -0.552950
H  -1.973190 -2.942860 3.239920
H  -3.676870 -1.834070 1.860970
H  1.608100 -0.871240 -2.068070
Pd  1.923720 0.315830 0.268760
H  -3.073340 -0.664220 -1.614940
C  -3.191140 1.039670 -0.314410
H  -2.140980 1.351350 -0.431320
H  -3.440010 1.239280 0.743110
C  -4.114940 1.838460 -1.225930
H  -4.021690 2.915200 -1.010350
H  -3.793660 1.706150 -2.275640
C  -5.565650 1.389530 -1.086090
H  -6.209600 1.941620 -1.789440
H  -5.924800 1.642830 -0.072130
C  -5.707110 -0.113510 -1.302870
H  -5.461560 -0.355670 -2.352920
H  -6.752460 -0.426880 -1.151400
C  -4.785290 -0.901980 -0.378560
H  -5.094050 -0.724000 0.666650
H  -4.884680 -1.985010 -0.556170
