32

C  -0.028480 -0.027890 1.655120
C  1.067110 0.551400 2.379590
C  -0.727030 0.722540 0.662920
H  1.555640 -0.052360 3.151220
N  1.521040 1.762830 2.170670
C  -0.222180 2.026650 0.425530
C  -2.028530 0.215350 0.101050
C  0.882930 2.446310 1.214160
C  -0.549980 3.126550 -0.430330
N  1.193770 3.717630 0.848580
C  0.339620 4.132330 -0.141940
H  -1.340980 3.181800 -1.172620
H  1.960210 4.242460 1.247720
H  0.426340 5.127070 -0.573470
H  -0.466690 -0.944650 2.052500
Pd  0.962540 -0.780120 -0.120350
H  -2.125760 -0.829350 0.438430
C  -2.084470 0.183600 -1.429610
H  -1.249710 -0.424720 -1.811780
H  -1.947450 1.200120 -1.834190
C  -3.415510 -0.379740 -1.911770
H  -3.448900 -0.376160 -3.013000
H  -3.486570 -1.437920 -1.603100
C  -4.595710 0.396980 -1.338340
H  -5.547670 -0.046920 -1.671530
H  -4.578810 1.428620 -1.735360
C  -4.538930 0.447070 0.184460
H  -4.671030 -0.573670 0.586140
H  -5.372180 1.047680 0.583680
C  -3.210540 1.008100 0.679170
H  -3.119630 2.067700 0.383430
H  -3.168090 0.988630 1.780220
