25

C  -0.034300 -0.685090 -1.202150
C  -1.385530 -0.942610 -0.766650
C  0.007010 0.708310 -1.467710
C  -2.075120 0.293010 -0.772070
C  -2.098450 -2.053720 -0.321210
H  0.785560 1.254810 -1.998100
N  -1.216600 1.273760 -1.230480
N  -3.323000 0.503770 -0.394000
C  -3.423780 -1.869190 0.066590
Cl  -1.347960 -3.596340 -0.235460
C  -1.521540 2.701180 -1.179330
C  -3.976000 -0.581900 0.011160
H  -4.016820 -2.712890 0.420040
H  -5.015720 -0.436080 0.322720
H  0.689900 -1.431240 -1.537890
Pd  1.078430 0.195430 0.421420
H  -2.621150 2.733740 -1.145440
C  -0.975650 3.316460 0.103280
H  -1.297680 4.364590 0.190310
H  -1.335440 2.761000 0.980610
H  0.125930 3.293280 0.113300
C  -1.035400 3.407410 -2.433860
H  -1.432050 2.927350 -3.340240
H  -1.370360 4.454410 -2.424150
H  0.064270 3.418160 -2.495550
