32

C  -1.628540 -1.496040 -0.240630
C  -1.277280 -0.990480 -1.534620
C  -0.598490 -1.678120 0.723270
H  -2.070590 -0.956880 -2.286330
N  -0.038220 -0.638460 -1.886040
C  0.683890 -1.279970 0.398710
Cl  -0.959650 -2.368750 2.253460
C  0.866420 -0.769170 -0.935740
C  1.958630 -1.228220 1.044410
N  2.181560 -0.450010 -1.051140
C  2.847480 -0.710990 0.135890
H  2.188280 -1.530700 2.062730
H  2.581920 -0.042010 -1.885160
C  4.301800 -0.417970 0.282820
H  -2.588990 -1.996680 -0.113420
Pd  -2.204490 0.588470 0.036660
H  4.575050 -0.726480 1.306390
C  4.601120 1.083500 0.152430
H  3.997130 1.643760 0.883510
H  4.280660 1.432390 -0.846520
C  6.086200 1.375120 0.332750
H  6.276200 2.452600 0.204170
H  6.377910 1.131120 1.370130
C  6.939210 0.561870 -0.634570
H  8.009090 0.758780 -0.461140
H  6.727890 0.889850 -1.668730
C  6.647520 -0.929680 -0.512830
H  6.965660 -1.283280 0.484430
H  7.239290 -1.500670 -1.245790
C  5.164160 -1.228710 -0.695920
H  4.869090 -0.981240 -1.732290
H  4.960760 -2.303120 -0.564720
