26

C  0.715520 -1.547240 -0.332570
C  0.641770 -1.427350 1.072070
S  -0.849670 -1.346100 -1.047580
C  -0.685810 -1.131490 1.518970
H  1.455560 -1.737910 1.730220
C  -1.590620 -1.035030 0.497440
H  -0.952950 -0.972290 2.564100
C  -3.031100 -0.648700 0.579800
H  1.538570 -1.971160 -0.919970
Pd  1.582670 0.375660 0.183190
H  -3.282000 -0.628510 1.655850
C  -3.956600 -1.664690 -0.101250
H  -3.793400 -2.665320 0.329660
H  -3.681400 -1.736910 -1.169690
C  -5.419440 -1.254020 0.017740
H  -6.057810 -1.984470 -0.504440
H  -5.718190 -1.287100 1.081230
C  -5.655680 0.150060 -0.527730
H  -6.710300 0.440170 -0.395200
H  -5.467110 0.151660 -1.616580
C  -4.734710 1.165720 0.139540
H  -5.000930 1.252020 1.208850
H  -4.884270 2.166590 -0.296430
C  -3.271110 0.761910 0.017660
H  -2.965880 0.772330 -1.043780
H  -2.606690 1.476530 0.525210
