22

C  0.198220 -1.511650 -0.448750
C  0.015670 -1.410400 0.946380
S  -1.293940 -1.238240 -1.281210
C  -1.332890 -1.070310 1.291980
H  0.758670 -1.765680 1.663090
C  -2.150700 -0.921270 0.205480
H  -1.663500 -0.921910 2.318600
C  -3.598550 -0.493350 0.155140
H  1.052180 -1.951770 -0.977210
Pd  1.089080 0.369470 0.183890
C  -4.138550 -0.311440 1.573810
H  -5.196830 -0.013380 1.532480
H  -4.074120 -1.244400 2.154050
H  -3.589510 0.474190 2.114100
C  -3.697880 0.840940 -0.601280
H  -3.366850 0.732660 -1.645240
H  -4.741350 1.192810 -0.607100
H  -3.058630 1.602180 -0.132700
C  -4.423280 -1.565230 -0.571610
H  -5.479920 -1.260280 -0.621890
H  -4.068140 -1.716940 -1.602750
H  -4.366460 -2.531750 -0.048470
