35

C  -1.300580 1.417220 -1.051340
C  -2.186890 1.985550 -0.098170
C  0.061800 1.813490 -1.048710
C  -1.710900 2.938790 0.827640
H  -3.255200 1.773880 -0.178490
C  0.531080 2.742680 -0.114750
O  0.862590 1.303660 -1.987270
C  -0.376650 3.299820 0.808320
H  -2.397970 3.383980 1.548500
C  1.934660 3.115830 -0.209560
C  2.240220 1.131890 -1.628280
H  -0.000790 4.035360 1.524290
C  2.760960 2.376620 -0.964520
H  2.283220 4.005100 0.321770
C  2.388520 -0.121200 -0.757550
H  2.748190 0.967720 -2.591550
H  3.815550 2.635090 -1.080100
H  -1.652620 0.822870 -1.896390
Pd  -1.460700 -0.078010 0.570890
H  1.838860 0.085470 0.180100
C  3.847150 -0.390300 -0.389660
H  4.281220 0.477500 0.133180
H  4.434880 -0.528780 -1.317140
C  3.979290 -1.636660 0.480430
H  5.040420 -1.827270 0.709730
H  3.482660 -1.447030 1.449660
C  3.343320 -2.857270 -0.175680
H  3.415940 -3.731560 0.491860
H  3.915200 -3.114350 -1.086060
C  1.892590 -2.587430 -0.556350
H  1.286020 -2.455940 0.357530
H  1.456600 -3.453240 -1.078660
C  1.757610 -1.343080 -1.424700
H  2.260940 -1.515800 -2.394960
H  0.696320 -1.162470 -1.648400
