23

C  -0.522750 -1.039110 1.062910
C  -0.574530 -2.348880 0.489930
C  0.756110 -0.538980 1.436320
C  0.610840 -3.056440 0.232880
O  -1.708320 -2.958660 0.182380
C  1.940380 -1.233430 1.171950
O  0.781370 0.620010 2.121070
C  1.829620 -2.498860 0.568970
H  0.538980 -4.040420 -0.230640
C  3.184320 -0.616860 1.576370
C  1.913290 1.413520 2.029740
H  2.746720 -3.055730 0.359680
C  3.186040 0.653990 2.013340
H  4.108390 -1.197270 1.519300
Cl  1.811320 2.442110 0.493420
H  1.841500 2.149800 2.836940
H  4.096630 1.178790 2.305630
H  -1.411140 -0.564440 1.522160
Pd  -0.511920 0.124440 -0.774380
C  -2.932110 -2.257630 0.291860
H  -3.112630 -1.901750 1.316270
H  -2.930600 -1.384600 -0.382610
H  -3.714840 -2.963180 -0.008740
