28
Properties=species:S:1:pos:R:3 aa216_opt_TZ.log=T Energy:=T -419701.3589187=T pbc="F F F"
C       -0.13586000      -1.15241000      -0.00023000
C        0.47774000       0.08977000      -0.00036000
N        1.87211000       0.26633000      -0.00048000
C        2.83906000      -0.69270000      -0.00019000
O        2.64951000      -1.87927000      -0.00005000
O        4.12095000      -0.24597000      -0.00005000
C        4.46155000       1.12347000       0.00081000
C       -1.51859000      -1.23998000      -0.00004000
C       -2.30544000      -0.09739000       0.00001000
C       -1.69180000       1.16551000      -0.00012000
C       -0.31354000       1.23781000      -0.00031000
O       -3.67189000      -0.08871000       0.00021000
C       -4.34878000      -1.32031000       0.00042000
C       -2.54585000       2.39460000      -0.00005000
H       -4.11593000      -1.90915000      -0.89285000
H       -4.11558000      -1.90903000       0.89368000
H       -5.40952000      -1.07290000       0.00061000
H       -3.19171000       2.39902000       0.87637000
H       -3.19159000       2.39922000      -0.87655000
H       -1.93650000       3.29432000       0.00009000
H        0.46334000      -2.04635000      -0.00026000
H       -1.96807000      -2.21993000       0.00006000
H        0.15814000       2.21192000      -0.00042000
H        4.10003000       1.63496000      -0.89764000
H        4.09868000       1.63414000       0.89918000
H        5.55051000       1.14573000       0.00163000
H        2.15410000       1.23503000      -0.00099000
Xe       0.57601920       3.07492099      -0.00051745
