21
Properties=species:S:1:pos:R:3 aa74_opt_TZ.log=T Energy:=T -299936.4437585=T pbc="F F F"
C        0.51102000       0.03812000      -0.00014000
C        1.24138000       1.22537000       0.00041000
C        2.62192000       1.18384000       0.00059000
C        3.28259000      -0.03555000       0.00016000
C        2.55924000      -1.21723000      -0.00044000
C        1.17715000      -1.18514000      -0.00056000
H        0.70486000       2.16072000       0.00072000
H        3.18865000       2.10328000       0.00108000
H        4.36246000      -0.06447000       0.00030000
H        3.07492000      -2.16638000      -0.00077000
H        0.60291000      -2.09890000      -0.00101000
C       -0.94397000       0.08793000      -0.00024000
N       -1.63400000       1.15272000      -0.00041000
C       -3.02795000       0.78618000      -0.00103000
C       -3.00882000      -0.76449000       0.00158000
O       -1.62520000      -1.09164000      -0.00016000
H       -3.46971000      -1.19399000       0.89534000
H       -3.51452000       1.20510000       0.88315000
H       -3.51238000       1.20199000      -0.88794000
H       -3.47303000      -1.19748000      -0.88868000
Xe       0.09189572      -2.91205200      -0.00141045
