11
Properties=species:S:1:pos:R:3 RH_Sub6_O.log=T Energy:=T -121102.2594147=T pbc="F F F"
O        1.85391000      -0.17565000       0.00002000
H        2.49094000       0.54257000      -0.00056000
C        0.60034000       0.33800000       0.00012000
H        0.52419000       1.43419000       0.00003000
C       -0.49508000      -0.42487000       0.00001000
C       -1.88648000       0.11485000      -0.00004000
H       -0.35551000      -1.51171000      -0.00007000
H       -2.45424000      -0.22136000       0.88428000
H       -2.45453000      -0.22223000      -0.88383000
H       -1.89484000       1.21593000      -0.00056000
Xe       0.56271597       0.88588002      -2.99992496
