24
Properties=species:S:1:pos:R:3 RH_Sub33.log=T Energy:=T -440530.0059587=T pbc="F F F"
N       -1.00366000       1.71878000      -0.36290000
H       -1.39948000       2.11939000       0.48623000
H       -1.54025000       2.07837000      -1.14815000
C       -1.05914000       0.27984000      -0.30812000
C       -2.47947000      -0.22679000      -0.09340000
H       -0.74918000      -0.12510000      -1.28632000
C       -0.12007000      -0.27740000       0.76686000
H       -0.37228000      -1.33287000       0.94354000
H       -0.32133000       0.25724000       1.71053000
C        1.33429000      -0.17181000       0.39622000
C        1.99601000       1.06245000       0.38255000
C        2.05105000      -1.31720000       0.03294000
C        3.33693000       1.14477000       0.01547000
C        3.39347000      -1.23765000      -0.33423000
H        1.54905000      -2.28916000       0.04206000
C        4.04102000      -0.00423000      -0.34393000
H        3.83762000       2.11617000       0.01067000
H        3.93570000      -2.14508000      -0.61112000
H        5.09377000       0.06220000      -0.62890000
H        1.44208000       1.96532000       0.64437000
F       -2.55575000      -1.56004000      -0.12724000
F       -3.30082000       0.24527000      -1.03985000
F       -2.96726000       0.17590000       1.08834000
Xe       5.36769413      -0.36865307       2.37739457
