11
Properties=species:S:1:pos:R:3 RH_Sub16_O.log=T Energy:=T -121106.1826240=T pbc="F F F"
O        0.19518000       1.33802000       0.00005000
H       -0.69335000       1.70552000      -0.00024000
C        0.12144000      -0.01805000      -0.00006000
C       -1.26152000      -0.58720000       0.00001000
C        1.24193000      -0.74865000      -0.00002000
H        1.19159000      -1.83681000       0.00009000
H        2.21926000      -0.26327000      -0.00001000
H       -1.24617000      -1.68397000       0.00005000
H       -1.82194000      -0.25115000      -0.88979000
H       -1.82190000      -0.25106000       0.88981000
H        1.73059500      -0.50596000      -0.00001500
