10
Properties=species:S:1:pos:R:3 RH_Sub17_O.log=T Energy:=T -131173.2861448=T pbc="F F F"
O       -0.36218000       1.27958000       0.04834000
H       -1.19798000       1.30041000      -0.43541000
C        0.09302000       0.00558000       0.00457000
H       -0.61120000      -1.88678000      -0.15423000
C        1.40628000      -0.26535000       0.00796000
H        1.76490000      -1.29052000       0.09777000
H        2.12588000       0.54776000      -0.07599000
H       -1.62075000      -0.84110000       0.66869000
N       -0.93703000      -0.92968000      -0.08039000
H        1.76608000       0.14120500      -0.03401500
