21
Properties=species:S:1:pos:R:3 RH_Sub5.log=T Energy:=T -517603.4498613=T pbc="F F F"
N        2.70256000       1.11903000       0.81506000
H        3.31178000       1.67022000       0.21374000
H        3.16892000       1.04666000       1.71522000
C        2.46726000      -0.18937000       0.24289000
H        3.38426000      -0.70659000      -0.11144000
H        2.03071000      -0.83939000       1.01848000
C        1.48258000      -0.11360000      -0.92616000
H        1.43406000      -1.09924000      -1.41254000
H        1.86939000       0.59652000      -1.67601000
C        0.10701000       0.31339000      -0.50536000
C       -0.26290000       1.66314000      -0.51069000
C       -0.84527000      -0.60288000      -0.03794000
C       -1.52191000       2.08151000      -0.09117000
C       -2.11362000      -0.20539000       0.38206000
Cl      -0.45355000      -2.29923000       0.03822000
C       -2.45214000       1.14392000       0.35363000
H       -1.77712000       3.14335000      -0.10960000
H       -2.82174000      -0.95929000       0.72965000
H       -3.44493000       1.45939000       0.68254000
H        0.47103000       2.39787000      -0.84873000
H       -1.64951500       2.61243000      -0.10038500
