23
Properties=species:S:1:pos:R:3 RH_Sub28.log=T Energy:=T -357487.0008513=T pbc="F F F"
N       -3.71339000      -1.28656000       0.14494000
H       -4.26971000      -1.35097000      -0.70588000
H       -4.19940000      -1.82925000       0.85443000
C       -3.56921000       0.09669000       0.55454000
H       -4.53089000       0.64806000       0.61381000
H       -3.14290000       0.11557000       1.57134000
C       -2.64191000       0.87430000      -0.38133000
H       -2.78645000       1.95131000      -0.20534000
H       -2.96705000       0.69448000      -1.42276000
C       -1.17569000       0.55560000      -0.25551000
C       -0.70386000      -0.76517000      -0.32786000
C       -0.24824000       1.58901000      -0.06311000
C        0.65231000      -1.04381000      -0.21219000
C        1.11255000       1.32785000       0.04930000
H       -0.60020000       2.62210000      -0.00075000
C        1.54385000       0.00870000      -0.02813000
H        1.03774000      -2.06226000      -0.26267000
H        1.84574000       2.12060000       0.19757000
N        2.97675000      -0.27968000       0.08962000
H       -1.43092000      -1.57016000      -0.45096000
O        3.32238000      -1.43863000       0.01677000
O        3.72533000       0.65927000       0.25262000
H       -1.06739000      -1.16766500      -0.38941000
