21
Properties=species:S:1:pos:R:3 RH_Sub20_O.log=T Energy:=T -323252.1494705=T pbc="F F F"
O       -3.26304000      -0.04635000       0.01391000
C       -2.10622000      -0.72506000      -0.00262000
H       -3.96354000      -0.71538000       0.01355000
O       -2.07253000      -1.93120000      -0.01409000
C       -0.90965000       0.15582000      -0.00491000
C       -1.01854000       1.54831000       0.01388000
C        0.33797000      -0.47203000      -0.02149000
C        0.15258000       2.30551000       0.01538000
C        1.51846000       0.28763000      -0.02711000
H        0.35690000      -1.56198000      -0.03071000
C        1.39804000       1.69361000      -0.00512000
H        0.09505000       3.39657000       0.03218000
N        2.75576000      -0.29922000      -0.06739000
H        2.30492000       2.30544000      -0.00792000
H       -2.00015000       2.02116000       0.02888000
H        3.54601000       0.30304000       0.10787000
C        2.95764000      -1.71278000       0.04991000
H        4.03313000      -1.92925000       0.00425000
H        2.47641000      -2.25963000      -0.77882000
H        2.56383000      -2.13107000       0.99639000
H        0.34743500      -1.01700500      -0.02610000
