22
Properties=species:S:1:pos:R:3 RH_Sub13.log=T Energy:=T -453358.1874765=T pbc="F F F"
C       -0.52814000      -0.13141000      -0.00010000
C       -1.65856000       0.74539000      -0.00010000
C        0.77519000       0.45527000      -0.00023000
C        0.93246000       1.82284000       0.00007000
C       -1.45546000       2.14943000      -0.00004000
C       -0.18923000       2.67901000       0.00016000
H       -2.33071000       2.80414000      -0.00000000
H       -0.04071000       3.76074000       0.00025000
C        1.99903000      -0.42120000      -0.00017000
C       -0.76109000      -1.53273000       0.00029000
H        0.08243000      -2.22226000       0.00037000
C       -2.04240000      -2.03315000       0.00050000
H       -2.19856000      -3.11433000       0.00080000
C       -3.15705000      -1.16625000       0.00033000
H       -4.16796000      -1.57999000       0.00050000
C       -2.96548000       0.19420000       0.00005000
H       -3.81960000       0.87611000       0.00004000
H        1.93775000       2.24569000       0.00013000
F        2.03905000      -1.21936000      -1.07593000
F        2.03802000      -1.22074000       1.07445000
F        3.12755000       0.29137000       0.00074000
H       -0.33933000      -1.87749500       0.00033000
