21
Properties=species:S:1:pos:R:3 RH_Sub22.log=T Energy:=T -244835.2336351=T pbc="F F F"
N       -1.33901000       1.37931000       0.55554000
H       -1.02573000       0.92427000       1.41007000
H       -2.13696000       1.96251000       0.79458000
C       -1.68584000       0.42820000      -0.43032000
F       -2.69961000      -0.43407000       0.02182000
H       -2.11727000       0.96370000      -1.29321000
C        2.47869000      -0.23945000      -0.02831000
H        2.99341000      -1.12802000      -0.41888000
C        2.89183000       0.96747000      -0.41871000
H        3.73436000       1.09139000      -1.10433000
C       -0.53150000      -0.43810000      -0.89820000
H        0.19400000       0.20063000      -1.42725000
H       -0.95043000      -1.12937000      -1.64498000
C        1.32871000      -0.50176000       0.89211000
H        0.98817000       0.45528000       1.31554000
H        1.67754000      -1.12080000       1.73740000
C        0.17137000      -1.23603000       0.20008000
H       -0.57402000      -1.56068000       0.94551000
H        0.56956000      -2.16713000      -0.23653000
H        2.39735000       1.87762000      -0.06300000
C        1.46119142      -0.74540954      -1.76337805
