21
Properties=species:S:1:pos:R:3 RH_Sub41_S.log=T Energy:=T -455503.3957360=T pbc="F F F"
S        1.98622000      -0.93386000      -0.43568000
H        1.22155000      -1.53331000       0.49970000
C        1.84433000       0.77589000       0.18636000
H        1.83106000       0.75417000       1.28712000
H        2.80464000       1.23109000      -0.09752000
C       -1.90142000       0.05846000      -0.97991000
H       -2.38068000       0.84523000      -1.57416000
C       -1.68349000      -1.13927000      -1.51643000
H       -1.98174000      -1.35495000      -2.54481000
C        0.70930000       1.63406000      -0.37776000
H        0.49606000       1.31587000      -1.41140000
H        1.08843000       2.66756000      -0.45114000
C       -1.53234000       0.49776000       0.41421000
C       -1.03684000      -0.59530000       1.24724000
H       -2.46239000       0.82929000       0.91330000
C       -0.58868000       1.72208000       0.41970000
H       -0.37241000       1.99103000       1.46706000
H       -1.17918000       2.55761000       0.00907000
H       -1.19477000      -1.94103000      -0.95649000
N       -0.64504000      -1.44898000       1.92425000
C        0.34192114      -0.91848133      -1.90082804
