24
Properties=species:S:1:pos:R:3 aa218_plan_opt_TZ.log=T Energy:=T -347884.5723173=T pbc="F F F"
C        0.65389000       1.44199000       0.00043000
C        0.25877000       0.11059000      -0.00048000
N       -1.08521000      -0.29367000      -0.00047000
C       -2.20181000       0.48959000       0.00025000
O       -2.21518000       1.69030000       0.00071000
O       -3.38825000      -0.16778000       0.00028000
C       -3.49401000      -1.57520000       0.00007000
C        2.00436000       1.74504000       0.00026000
C        2.95830000       0.74492000      -0.00096000
C        2.57400000      -0.59170000      -0.00206000
C        1.22291000      -0.89519000      -0.00170000
C        3.60903000      -1.67594000       0.00163000
H       -0.08854000       2.22099000       0.00100000
H        2.31165000       2.78005000       0.00079000
H        4.00891000       0.99554000      -0.00128000
H        4.29249000      -1.55045000      -0.83669000
H        4.19661000      -1.63211000       0.91803000
H        3.14960000      -2.65876000      -0.06759000
H        0.91090000      -1.93216000      -0.00259000
H       -1.20374000      -1.29595000      -0.00112000
H       -3.05098000      -2.01832000       0.89832000
H       -3.05186000      -2.01799000      -0.89877000
H       -4.56377000      -1.77986000       0.00056000
C        3.48263463       0.87174415      -2.00111919
