13
Properties=species:S:1:pos:R:3 RH_Sub20_S.log=T Energy:=T -358429.8767915=T pbc="F F F"
S        1.70330000      -0.43149000      -0.05713000
H        2.30364000       0.51431000       0.69256000
C        0.07076000       0.28772000       0.01044000
N       -0.89076000      -0.69488000      -0.00800000
C       -0.15155000       1.61621000      -0.00444000
H       -1.15959000       2.02105000       0.09513000
H        0.67159000       2.31735000      -0.13484000
H       -0.63240000      -1.54974000       0.46964000
C       -2.28482000      -0.35798000      -0.01554000
H       -2.88149000      -1.27619000      -0.10301000
H       -2.51295000       0.27953000      -0.88484000
H       -2.61270000       0.18598000       0.89263000
Xe      -0.87555889       1.75956136      -1.94164161
