25

N  -2.652310 1.007640 -0.000300
C  -1.716070 0.052040 -0.000010
C  -2.062850 -1.307810 0.000350
H  -1.294400 -2.080830 0.000670
C  -3.406190 -1.663640 0.000340
C  -4.372050 -0.660940 -0.000000
H  -5.438640 -0.893540 -0.000020
C  -3.932360 0.662250 -0.000300
H  -4.657520 1.484560 -0.000560
C  -0.302320 0.508600 -0.000020
C  -0.025750 1.885350 0.000060
C  0.772540 -0.382110 -0.000080
C  1.284930 2.348310 0.000130
C  2.094730 0.072530 0.000020
H  0.633800 -1.464420 -0.000260
C  2.349060 1.448670 0.000150
H  1.480370 3.423130 0.000190
C  3.179660 -0.959910 -0.000100
H  3.373820 1.825040 0.000240
H  -0.872310 2.573750 0.000070
O  2.905820 -2.140680 -0.000470
C  4.614370 -0.494940 0.000180
H  4.826480 0.122170 -0.886570
H  4.826170 0.122590 0.886700
H  5.270410 -1.373300 0.000470
