22

S  0.027020 2.441640 -0.016300
H  0.236110 2.294340 1.308900
C  -1.198540 1.111380 -0.208240
H  -1.937500 1.200240 0.602250
H  -1.722720 1.344950 -1.147500
C  2.309210 -1.260420 -0.021420
C  3.024800 -0.621260 -0.948250
H  3.580040 -1.163850 -1.717980
C  -0.650150 -0.312520 -0.322550
H  0.104930 -0.315480 -1.124640
O  -1.663180 -1.171450 -0.810640
C  1.516700 -0.595960 1.060100
H  1.719670 0.484450 1.045670
H  1.856270 -0.974970 2.040090
C  0.009490 -0.859690 0.948980
H  -0.497120 -0.475820 1.851630
H  -0.150450 -1.951290 0.942830
H  3.074380 0.472460 -0.970150
C  -2.752480 -1.417590 0.027480
H  -2.457260 -1.852850 1.000740
H  -3.361010 -0.515550 0.227630
H  -3.395070 -2.146890 -0.485780
