21

S  -3.631050 -0.502350 0.015080
H  -3.320000 -0.607820 -1.294060
C  -2.638350 0.985270 0.371300
H  -2.876070 1.760410 -0.374840
H  -3.033450 1.344740 1.333390
C  1.639690 1.599810 -0.607090
H  1.320770 2.343290 -1.348150
C  2.471610 1.985660 0.359940
C  -1.138830 0.756820 0.477250
H  -0.942860 0.020930 1.271600
H  -0.667530 1.700780 0.802230
C  1.031240 0.244580 -0.842910
C  1.584780 -0.858520 0.039390
H  1.325170 -0.071120 -1.860160
C  -0.505410 0.298310 -0.828560
H  -0.894170 -0.695400 -1.099610
H  -0.809580 0.984130 -1.638960
H  2.831580 1.307460 1.136240
F  1.388930 -0.638640 1.346730
F  2.899770 -1.013050 -0.139180
F  1.007480 -2.030420 -0.250230
