22

N  0.608240 2.573920 -0.301870
H  0.950390 2.752380 0.640160
H  0.394420 3.485730 -0.697510
C  -0.588000 1.754830 -0.265460
H  -1.313170 2.051260 0.521010
H  -1.112620 1.868410 -1.225950
C  2.541750 -1.082780 0.063200
H  2.401670 -2.108430 0.430560
C  3.085620 -0.897370 -1.140910
C  -0.264810 0.270020 -0.080030
H  0.311950 -0.072690 -0.955650
C  -1.541880 -0.538680 -0.104880
C  2.061400 0.010730 0.964330
H  2.346980 0.983400 0.538410
H  2.557600 -0.083210 1.946060
C  0.544470 -0.037900 1.186450
H  0.256010 0.662730 1.988630
H  0.279620 -1.040890 1.558190
H  3.228640 0.109180 -1.548000
F  -1.295470 -1.853560 -0.078250
F  -2.262920 -0.297790 -1.207720
F  -2.330230 -0.266370 0.946110
