20

N  1.631760 0.801680 1.049280
H  1.166080 1.584860 0.596590
H  2.398340 1.194610 1.587540
C  2.134190 -0.155990 0.077600
H  2.457600 0.312280 -0.876230
H  3.041700 -0.614470 0.502300
C  -1.827030 -0.730170 0.480910
C  -1.525080 -0.353930 1.722400
H  -2.036130 -0.801430 2.578740
C  1.177530 -1.308340 -0.234490
H  0.769850 -1.686570 0.716980
H  1.783240 -2.127070 -0.658870
C  -1.163990 -0.211380 -0.775930
C  -0.832380 1.210360 -0.703290
H  -1.903860 -0.274050 -1.593100
C  0.043710 -1.071600 -1.227790
H  0.443490 -0.637300 -2.160090
H  -0.376580 -2.052670 -1.503900
H  -0.735490 0.378780 1.919640
N  -0.555710 2.334700 -0.685850
