33
aa104_plan_opt_C16_H21_TZ.log	Energy: -422606.0656385
C         -1.39452        0.01386        0.36540
C         -1.55256       -0.03039       -1.02948
C         -2.84694       -0.04823       -1.54183
C         -3.96455       -0.02360       -0.73033
C         -3.80671        0.02068        0.64486
C         -2.53566        0.03872        1.17483
C         -0.42331       -0.05992       -2.01622
H         -2.97884       -0.08256       -2.61444
H         -4.95116       -0.03878       -1.16986
H         -4.66835        0.04077        1.29520
H         -2.38064        0.07296        2.24141
C         -0.10614        0.03752        1.08441
C          1.19863        0.01148        0.37027
C          1.83584        1.21524        0.06342
C          3.09477        1.17744       -0.51833
C          3.71542       -0.03157       -0.77624
C          3.08718       -1.21859       -0.44498
C          1.82814       -1.21280        0.13775
C          1.15805        2.51917        0.36426
H          3.59223        2.10340       -0.76913
H          3.57876       -2.16124       -0.63860
C          1.14223       -2.49151        0.51789
N         -0.13915        0.08079        2.35468
H          0.77972        0.09460        2.79363
H          1.73565        3.35378       -0.02585
H          0.15821        2.54779       -0.06891
H          1.04664        2.64854        1.44101
H          0.14467       -2.54330        0.08155
H          1.71771       -3.35215        0.18549
H          1.02413       -2.55079        1.60004
H         -0.81990       -0.08710       -3.02930
H          0.21008        0.81940       -1.92373
H          0.20603       -0.93583       -1.87529
