16
aa119_plan_opt_C5_H10_TZ.log	Energy: -240905.6304328
C         -0.17325       -0.07427       -0.00000
C          0.50930        1.14133        0.00001
C          1.89184        1.16177        0.00001
C          2.61076       -0.02296        0.00000
C          1.94234       -1.23678       -0.00001
C          0.56187       -1.26091       -0.00001
H         -0.02976        2.07573        0.00001
H          2.41343        2.10772        0.00001
H          3.69051        0.00093       -0.00000
H          0.02133       -2.19568       -0.00001
C         -1.65565       -0.18135       -0.00000
O         -2.20971       -1.25828        0.00002
C         -2.44014        1.10830       -0.00001
H         -3.50303        0.87970       -0.00011
H         -2.19868        1.69349        0.88448
H         -2.19853        1.69360       -0.88440
