49
aa124_opt_C20_H48_TZ.log	Energy: -579982.3988531
O          0.71841       -1.81122       -0.34442
C          0.59638       -0.62570       -0.11035
N         -0.62287       -0.00296       -0.05770
C         -0.79275        1.43816       -0.16256
C         -1.17841        2.07345        1.18017
C         -1.22668        3.59350        1.05224
C         -2.21013        4.00761       -0.03833
C         -1.83483        3.36465       -1.37043
C         -1.80466        1.84320       -1.24255
C         -1.81691       -0.83678        0.08852
C         -1.71449       -1.75561        1.30929
C         -3.02256       -2.51716        1.49803
C         -3.34318       -3.33699        0.25231
C         -3.42749       -2.43273       -0.97319
C         -2.12287       -1.66522       -1.16225
N          1.67800        0.19697        0.15275
C          3.03231       -0.12061        0.05368
C          3.94735        0.76014        0.63033
C          5.30445        0.51981        0.54213
C          5.77141       -0.60122       -0.12301
C          4.86576       -1.47530       -0.69985
C          3.50531       -1.24323       -0.61993
H          0.16433        1.85903       -0.48876
H         -2.15765        1.70432        1.49011
H         -0.45906        1.78101        1.94944
H         -1.52052        4.03474        2.00666
H         -0.23157        3.97073        0.80304
H         -3.21734        3.69364        0.24437
H         -2.21496        5.09444       -0.13905
H         -2.55622        3.65209       -2.13759
H         -0.85285        3.72592       -1.68486
H         -2.80546        1.49220       -0.99052
H         -1.51549        1.39187       -2.19315
H         -2.65203       -0.15278        0.26343
H         -0.89920       -2.46201        1.15783
H         -1.49099       -1.15879        2.19739
H         -2.94180       -3.17396        2.36636
H         -3.83559       -1.81083        1.68846
H         -2.55553       -4.07667        0.09828
H         -4.28675       -3.86998        0.38896
H         -3.63326       -3.03026       -1.86334
H         -4.25340       -1.72666       -0.84752
H         -1.30135       -2.36094       -1.32778
H         -2.19557       -1.00819       -2.03117
H          1.49812        1.05508        0.65107
H          3.58780        1.63849        1.15088
H          5.99938        1.21154        0.99587
H          5.22093       -2.35169       -1.22175
H          2.80472       -1.93049       -1.06215
