30
aa152_plan_opt_C1_H7_TZ.log	Energy: -374230.2919123
C         -2.68716       -1.82628        0.00014
C         -1.96169        0.82896        0.00008
C         -3.30801        0.49649        0.00022
C         -4.34461        1.58008       -0.00024
C         -3.66397       -0.84548        0.00023
C         -1.34530       -1.49462        0.00001
H         -0.58685       -2.25826       -0.00003
C         -0.97510       -0.15341       -0.00003
N          0.35693        0.27682       -0.00006
H          0.45712        1.28079        0.00005
C          1.49681       -0.46313       -0.00023
H         -1.67477        1.87319        0.00007
H         -5.34645        1.15911        0.00749
H         -4.22894        2.21763        0.87560
H         -4.23850        2.20724       -0.88482
H         -4.70808       -1.12251        0.00036
O          1.51902       -1.67549       -0.00051
C          2.81416        0.33487        0.00004
C          2.66337        1.85641        0.00002
C          3.58175       -0.10225        1.25394
C          3.58236       -0.10221       -1.25349
H          3.65491        2.30626        0.00011
H          2.14655        2.21059       -0.89133
H          2.14638        2.21060        0.89126
H          4.57961        0.33206       -1.25894
H          3.66933       -1.18543       -1.27184
H          3.05835        0.21594       -2.15319
H          4.57899        0.33205        1.25989
H          3.05730        0.21587        2.15339
H          3.66874       -1.18546        1.27228
