31
aa150_plan_opt_C1_H17_TZ.log	Energy: -445157.2105818
C         -2.83272       -0.56517        0.12545
C         -1.50201       -0.20499       -0.05668
N         -1.12629        1.10493       -0.37744
C         -1.84558        2.25783       -0.26244
C         -3.16875       -1.88024        0.38838
C         -2.18665       -2.85357        0.45884
C         -0.86220       -2.50093        0.27733
C         -0.49796       -1.18248        0.03115
C          0.93147       -0.84816       -0.12233
C          1.72066       -1.54525       -1.03189
C          3.06412       -1.24285       -1.16063
C          3.63416       -0.24960       -0.38483
C          2.86734        0.45299        0.53796
C          1.52040        0.14500        0.65872
C          3.49452        1.50895        1.39692
C         -1.05066        3.47074       -0.70826
H         -4.20566       -2.14430        0.53177
H         -2.44906       -3.88180        0.65822
H         -0.08621       -3.24980        0.34733
H          1.27298       -2.31477       -1.64344
H          3.67110       -1.78548       -1.87066
H          4.68445       -0.01855       -0.48918
H          4.10205        1.04460        2.17375
H          4.14578        2.14999        0.80540
H          2.73771        2.12261        1.87965
H          0.92033        0.66388        1.39451
H         -0.16199        1.19497       -0.67164
H         -0.06356        3.48215       -0.25092
H         -0.93476        3.44989       -1.79100
H         -1.59094        4.37183       -0.43112
O         -2.98439        2.32583        0.13914
