30
aa152_opt_C1_H7_TZ.log	Energy: -374230.2922838
C          2.68716       -1.82627       -0.00033
C          1.96169        0.82896       -0.00011
C          3.30801        0.49649       -0.00013
C          4.34461        1.58008        0.00049
C          3.66397       -0.84549       -0.00023
C          1.34531       -1.49462       -0.00032
H          0.58685       -2.25825       -0.00040
C          0.97510       -0.15341       -0.00019
N         -0.35693        0.27682       -0.00026
H         -0.45712        1.28079       -0.00060
C         -1.49681       -0.46314        0.00034
H          1.67477        1.87319       -0.00005
H          5.34645        1.15910       -0.00609
H          4.22971        2.21702       -0.87590
H          4.23773        2.20788        0.88453
H          4.70809       -1.12251       -0.00026
O         -1.51902       -1.67549        0.00110
C         -2.81417        0.33486       -0.00006
C         -2.66337        1.85640       -0.00094
C         -3.58208       -0.10295       -1.25351
C         -3.58204       -0.10151        1.25392
H         -3.65491        2.30626       -0.00115
H         -2.14643        2.21111        0.89014
H         -2.14649        2.21008       -0.89245
H         -4.57928        0.33278        1.25937
H         -3.66901       -1.18470        1.27289
H         -3.05781        0.21716        2.15330
H         -4.57931        0.33134       -1.25945
H         -3.05785        0.21466       -2.15327
H         -3.66906       -1.18617       -1.27123
