24
aa185_plan_opt_C6_H15_TZ.log	Energy: -324927.6424999
C         -1.66270        1.05561       -0.00317
C         -1.00274       -0.16914        0.02052
N          0.39063       -0.28281        0.02317
C          1.33644        0.68979       -0.08917
C         -3.04528        1.08905       -0.00451
C         -3.78355       -0.08193        0.01763
C         -3.12803       -1.30160        0.04338
C         -1.74757       -1.34725        0.04594
C          2.76788        0.15268       -0.06285
C          3.01429       -0.88169       -1.16168
C          3.09953       -0.40815        1.32104
O          1.09922        1.87276       -0.19038
H         -1.09031        1.96738       -0.02336
H         -3.54945        2.04382       -0.02307
H         -3.69298       -2.22206        0.06051
H         -1.23890       -2.30211        0.06572
H          0.72586       -1.23398        0.08241
H          2.69070       -0.49805       -2.12672
H          4.07682       -1.10726       -1.22193
H          2.48834       -1.81493       -0.96623
H          3.40914        1.01959       -0.24972
H          2.93214        0.34730        2.08523
H          4.14417       -0.70962        1.35832
H          2.48672       -1.27659        1.55687
