49
aa191_plan_opt_C1_H31_TZ.log	Energy: -800781.0485368
C          3.13508        0.04696       -0.89866
C          3.76128       -0.04033        0.34171
N          5.14973       -0.04707        0.49348
C          6.12325        0.02689       -0.46461
C          7.51449       -0.00826        0.13449
O          5.91218        0.10782       -1.65102
C          2.98007       -0.12349        1.49369
C          1.60233       -0.11756        1.40922
C          0.97465       -0.02619        0.17214
C          1.75540        0.05469       -0.97476
C         -0.49958       -0.01144        0.08199
C         -1.20368       -1.21343        0.03017
C         -0.75206       -2.56423        0.02997
C         -1.88754       -3.34800       -0.03561
C         -3.00162       -2.49879       -0.07656
N         -2.58479       -1.22958       -0.03947
B         -3.48095        0.02179       -0.08350
N         -2.55713        1.25285       -0.03954
C         -1.17779        1.20604        0.04967
C         -0.69864        2.54682        0.09210
C         -1.81617        3.35549        0.02123
C         -2.94657        2.53112       -0.05941
C         -4.36817        2.92758       -0.15414
C         -4.43301       -2.86345       -0.14973
C          0.64821       -3.06113        0.08034
C          0.70892        3.01413        0.19488
H          7.67762       -0.95632        0.64371
H          7.64091        0.80219        0.84964
H          8.24672        0.09825       -0.66045
H          5.46356       -0.11453        1.45213
H          3.45811       -0.19243        2.46137
H          1.27341        0.12277       -1.93870
H          1.00454       -0.17999        2.30662
H          1.13440       -2.76308        1.00831
H          1.23519       -2.65632       -0.74269
H          0.65266       -4.14666        0.01584
H         -1.92512       -4.41998       -0.05457
H         -4.55565       -3.94268       -0.14253
H         -4.96809       -2.42428        0.69103
H         -4.87198       -2.44846       -1.05616
F         -4.33700        0.03290        1.00818
F         -4.23090        0.02854       -1.24915
H         -4.92482        2.50398        0.68068
H         -4.80358        2.51895       -1.06507
H         -4.46647        4.00933       -0.15206
H         -1.83119        4.42817        0.02679
H          0.72835        4.09868        0.27175
H          1.28353        2.71517       -0.68082
H          1.19851        2.58894        1.06960
