19
aa219_plan_opt_C1_H18_TZ.log	Energy: -385043.2663468
C          0.80611        1.06749        0.00437
C          0.18034       -0.17621        0.00017
C          0.95399       -1.33626       -0.00382
C          2.33322       -1.26346       -0.00367
C          2.93307       -0.01751        0.00060
C          2.18630        1.14605        0.00458
N         -1.21143       -0.33159        0.00044
C         -2.16868        0.64610       -0.00254
O         -3.45120        0.21947       -0.00100
C         -3.81719       -1.14482        0.00541
F          4.28102        0.06027        0.00091
O         -1.95403        1.82703       -0.00621
H         -4.90624       -1.14590        0.00670
H         -3.46619       -1.66556       -0.89153
H          2.68436        2.10229        0.00789
H          2.93996       -2.15487       -0.00682
H          0.47365       -2.30488       -0.00708
H         -1.51188       -1.29509        0.00055
H         -3.46394       -1.65760        0.90603
