24
aa22_plan_opt_C6_H11_TZ.log	Energy: -324932.8075354
C          0.20417        0.06633       -0.00095
C         -0.69436        1.14337       -0.00147
C         -2.05300        0.87491       -0.00474
C         -2.55219       -0.42140       -0.00834
C         -1.64630       -1.47137       -0.00789
C         -0.28473       -1.23493       -0.00430
C         -0.21410        2.56879       -0.00004
H         -2.74822        1.70338       -0.00547
C         -4.03086       -0.66686        0.00932
H         -2.00470       -2.49023       -0.01138
H         -4.26124       -1.66823       -0.34569
H         -4.41408       -0.57041        1.02591
H         -4.55134        0.05730       -0.61418
H         -1.06365        3.24681       -0.00196
H          0.38203        2.78386        0.88833
H          0.38639        2.78428       -0.88537
N          1.57901        0.34506        0.00139
H          1.79714        1.32987        0.00144
C          2.63497       -0.51489        0.00255
O          2.54685       -1.72252        0.00215
C          3.98165        0.18696        0.00234
H          3.89940        1.26956        0.03656
H          4.55409       -0.16054        0.85957
H          4.52471       -0.10647       -0.89363
