24
aa22_plan_opt_C5_H10_TZ.log	Energy: -324932.9708065
C          0.17544        0.06413       -0.00100
C         -0.73994        1.12689       -0.00143
C         -2.09419        0.83707       -0.00481
C         -2.57291       -0.46694       -0.00860
C         -1.65059       -1.50251       -0.00823
C         -0.29291       -1.24466       -0.00454
C         -0.28218        2.55970        0.00020
H         -2.80237        1.65450       -0.00547
C         -4.04753       -0.73565        0.00896
H          0.41418       -2.05653       -0.00560
H         -4.26210       -1.74048       -0.34619
H         -4.43227       -0.64538        1.02554
H         -4.57931       -0.01969       -0.61447
H         -1.14230        3.22425       -0.00167
H          0.31044        2.78401        0.88863
H          0.31488        2.78472       -0.88506
N          1.54571        0.36447        0.00144
H          1.74831        1.35260        0.00163
C          2.61508       -0.47874        0.00255
O          2.54599       -1.68761        0.00199
C          3.95055        0.24422        0.00249
H          3.85126        1.32538        0.03685
H          4.52834       -0.09434        0.85971
H          4.49821       -0.04051       -0.89349
