29
aa235_opt_C4_H23_TZ.log	Energy: -491430.9188430
H         -5.97625       -1.33445        0.00008
C         -4.56923        0.26052        0.00001
C         -3.21219        0.63887       -0.00002
C         -2.82863        2.00601       -0.00004
C         -2.62639       -1.73749        0.00003
C         -1.52024        2.40156       -0.00005
C          2.64967       -0.07383       -0.00000
C          5.36957       -0.61716        0.00002
H         -1.23092        3.44008       -0.00006
C          4.45462       -1.65936       -0.00007
C          3.09964       -1.39464       -0.00009
N          0.27905       -0.68809       -0.00001
H          6.42879       -0.82797        0.00003
H          5.63926        1.50684        0.00019
C          3.57267        0.97168        0.00009
C          4.92608        0.69572        0.00010
H          4.80326       -2.68141       -0.00014
H          2.37055       -2.18892       -0.00016
C         -0.55752        1.38936       -0.00004
O          0.79222        1.48842       -0.00003
C         -2.23353       -0.39046       -0.00001
H         -5.32384        1.03424        0.00001
C          1.22983        0.19900       -0.00002
C         -0.88387        0.02976       -0.00002
C         -3.95621       -2.06566        0.00005
C         -4.93141       -1.05991        0.00005
H         -1.85643       -2.49324        0.00003
H         -4.26219       -3.10143        0.00008
H          3.21956        1.99176        0.00016
