28
aa250_opt_C9_H23_TZ.log	Energy: -373456.5531155
H          4.15595        1.14736        0.12207
H         -2.60642        1.43143       -1.40584
C          3.75757       -0.94519        0.03058
H         -4.26521        0.18725        1.30737
O         -0.81124        1.28330       -0.42182
C         -3.27834       -0.25917        1.40610
N         -1.23636       -0.82366        0.21111
C          1.45286       -1.56370       -0.04854
C          2.78285       -1.92829       -0.02416
C          3.38940        0.38689        0.06967
H          2.61497        2.82680        0.28383
H          1.25777        2.56064       -0.82063
H          1.00726        2.43110        0.91001
H         -3.38167       -1.28688        1.74275
C          1.07602       -0.21983       -0.02212
H         -4.32552       -0.55721       -1.12713
H         -2.81592       -1.01455       -1.93776
H         -3.47147       -2.03830       -0.65982
C         -2.22901        1.21890       -0.40102
H          0.67069       -2.30483       -0.08982
H         -2.70983        0.29076        2.15316
C          2.05597        0.77892        0.04577
H          4.80337       -1.21521        0.04704
C          1.71866        2.23531        0.11025
C         -3.34657       -1.01026       -0.98797
C         -2.55095       -0.23404        0.06127
H         -2.60692        1.97445        0.29380
C         -0.35889        0.05153       -0.06021
