29
aa251_opt_C14_H24_TZ.log	Energy: -420619.6352860
H         -2.17615        3.54280        0.15302
C          2.26078        1.25154       -0.52671
C         -1.04888       -1.95406       -0.01184
O          0.84999        1.10648       -0.56520
O         -1.60375        1.63464        0.04786
C         -0.81061       -0.58357       -0.02748
C         -1.89483        0.31312        0.01038
C          3.69652       -0.84275       -0.87960
N          1.55777       -0.84371        0.28368
C          3.47611        0.12765        1.42464
H         -3.30836        2.51091       -0.75296
C          0.57419       -0.12816       -0.07948
C         -2.65476        2.56516        0.12372
C         -2.33669       -2.45178        0.01612
C          2.77837       -0.08731        0.08112
C         -3.40343       -1.56991        0.03060
C         -3.18818       -0.20320        0.03423
H         -3.25097        2.42735        1.03216
H         -4.03936        0.45899        0.05552
H          4.39124        0.69864        1.28498
H          2.82040        0.66366        2.10739
H          3.19259       -1.01251       -1.82858
H         -0.19331       -2.60998       -0.02516
H         -4.41702       -1.94305        0.04393
H          3.71778       -0.83512        1.86602
H          2.62567        1.41757       -1.54483
H          2.51082        2.11793        0.09186
H          3.95415       -1.80687       -0.45016
H          4.60669       -0.27373       -1.05446
