24
aa266_opt_C7_H14_TZ.log	Energy: -371938.1249795
C          2.65344        0.21890       -0.04030
O          3.99799        0.42307       -0.08603
C         -4.33987       -0.03484        0.05431
H         -4.24390       -2.11801       -0.46253
H         -1.77095       -2.13450       -0.53626
C         -0.14039        0.01837       -0.00889
C          2.03913       -1.00148        0.21979
C          0.48619        1.24370       -0.25017
C          1.85690        1.34362       -0.27183
H          4.70554       -1.45774       -0.60744
C         -3.68390       -1.21824       -0.24854
H          2.34708        2.28476       -0.46522
H         -0.13157        2.11067       -0.42241
C          4.85488       -0.66950        0.13779
C          0.65885       -1.09391        0.23147
C         -1.60582       -0.05110       -0.00138
C         -2.30185       -1.23108       -0.27966
N         -2.24697        1.08619        0.26911
H          5.86580       -0.27543        0.04552
H          4.72096       -1.08741        1.14095
H          0.20800       -2.04887        0.45756
C         -3.56404        1.08882        0.29635
H         -5.41683        0.01535        0.09360
H         -4.02026        2.04366        0.52703
