34
aa279_plan_opt_C9_H24_TZ.log	Energy: -574073.8034662
C         -1.82952        1.58909       -0.00039
C         -1.93720        0.20210       -0.00019
C         -0.78608       -0.75129       -0.00019
N          0.44754       -0.17378       -0.00022
H          0.53675        0.83693       -0.00014
O         -0.95887       -1.95638       -0.00014
C          1.69234       -0.77868       -0.00018
C          1.92353       -2.13555       -0.00035
C          3.23485       -2.62820       -0.00031
C          4.31462       -1.78726       -0.00008
C          4.11994       -0.39208        0.00008
C          5.17230        0.54726        0.00034
C          4.88250        1.88516        0.00046
C          3.53517        2.28224        0.00034
N          2.53398        1.44467        0.00013
C          2.79773        0.12211        0.00002
C         -2.98004        2.36214       -0.00046
C         -4.22902        1.77714       -0.00029
C         -4.35066        0.38548       -0.00003
C         -3.20035       -0.38919       -0.00002
O         -5.61737       -0.10423        0.00017
C         -5.79517       -1.50173        0.00088
H          1.08897       -2.81651       -0.00050
H          5.32329       -2.17416       -0.00004
H          6.19439        0.19435        0.00042
H          5.66267        2.63065        0.00066
H          3.27162        3.33270        0.00042
H         -0.87366        2.09101       -0.00053
H         -2.89842        3.43898       -0.00064
H         -5.12790        2.37307       -0.00033
H         -3.23539       -1.46742        0.00012
H         -5.35992       -1.96093        0.89369
H         -5.36049       -1.96177       -0.89177
H         -6.87239       -1.66063        0.00129
