20
aa271_plan_opt_C12_H19_TZ.log	Energy: -588443.3539594
Cl        -1.10073        2.29300       -0.00014
C          1.00055       -0.26379        0.00007
C         -2.79721        0.28752       -0.00006
C         -0.47099       -0.41460        0.00009
C         -0.95087       -1.73287        0.00016
C         -1.44175        0.59227       -0.00001
C         -3.23117       -1.02245       -0.00001
C         -2.29303       -2.04143        0.00011
C          1.70096        0.94411        0.00032
C          3.08661        0.92583        0.00022
C          3.75455       -0.28552       -0.00011
C          2.97828       -1.43581       -0.00029
N          1.66476       -1.42521       -0.00022
H         -3.51179        1.09678       -0.00015
H         -4.28816       -1.24031       -0.00007
H         -2.60835       -3.07372        0.00016
H         -0.21082       -2.51697        0.00024
H          1.19594        1.89192        0.00061
H          4.83186       -0.33906       -0.00020
H          3.63500        1.85718        0.00038
