34
aa279_opt_C14_H28_TZ.log	Energy: -574079.6043689
C         -1.87163        1.49330       -0.62848
C         -1.94452        0.15544       -0.25775
C         -0.77292       -0.76934       -0.25525
N          0.43197       -0.14890       -0.10816
H          0.46614        0.85525        0.03753
O         -0.90605       -1.97353       -0.36245
C          1.70113       -0.70238       -0.10066
C          1.98804       -2.03866       -0.26385
C          3.31635       -2.48276       -0.24653
C          4.35818       -1.61327       -0.06846
C          4.10587       -0.23793        0.10146
C          5.11657        0.72804        0.28908
C          4.77214        2.04378        0.44392
C          3.41185        2.39239        0.40908
N          2.44787        1.52918        0.23754
C          2.76553        0.22751        0.08543
C         -3.02492        2.26204       -0.62786
C         -4.23785        1.71610       -0.26272
C         -4.32338        0.36938        0.09962
C         -3.17094       -0.40356        0.09491
O         -5.56037       -0.08217        0.43180
C         -5.70619       -1.43811        0.78434
H          1.18331       -2.74070       -0.40484
H          3.51005       -3.53703       -0.37767
H          5.38033       -1.96282       -0.05577
H          6.15078        0.41271        0.30724
H          5.51977        2.80819        0.58958
H         -0.94105        1.93831       -0.94775
H         -2.97584        3.30050       -0.91998
H         -5.13988        2.30736       -0.25853
H         -3.18073       -1.45037        0.35487
H         -5.12308       -1.68542        1.67690
H         -5.41170       -2.09970       -0.03600
H         -6.76550       -1.57445        0.99624
