33
aa278_opt_C12_H21_TZ.log	Energy: -526905.9550443
O         -1.35840       -2.11532       -0.46719
H          4.93335       -1.75734       -0.15088
H          5.56570        0.65317        0.25821
H         -2.85337       -1.63738        2.03217
H          4.79517        3.00036        0.59465
H          3.15643       -3.43154       -0.49479
H          0.78697       -2.77429       -0.49054
C          4.09355        2.19561        0.43812
H         -5.52819        2.34413       -0.23774
H         -3.52062       -2.47752        0.64471
N         -0.11312       -0.23802       -0.12311
C         -3.54785        2.01701       -0.98219
C          2.71459        2.46312        0.42050
N          1.80273        1.54769        0.23828
H         -4.61040       -1.71229        1.81709
C         -1.28655       -0.91714       -0.28771
H         -0.14024        0.76328        0.04727
C          1.18666       -0.71582       -0.14361
C          2.19629        0.27106        0.05546
C         -2.45400        1.17151       -0.97502
H         -1.58462        1.41844       -1.56824
H          2.34806        3.47211        0.56227
H         -5.57608        0.26200        1.06245
C          4.51442        0.90628        0.25343
C          3.56132       -0.11406        0.05205
C          3.89244       -1.46855       -0.14924
C          2.90218       -2.39354       -0.33942
C          1.54939       -2.02865       -0.33845
C         -2.47434       -0.00970       -0.23875
C         -3.61200       -0.35517        0.49876
C         -3.65907       -1.61849        1.29860
C         -4.69547        0.51381        0.48884
C         -4.67028        1.68800       -0.24225
