35
aa281_plan_opt_C8_H29_TZ.log	Energy: -516958.6153403
C         -1.97045       -2.02719       -0.50423
C         -1.34621       -0.79840       -0.35563
C          0.12812       -0.67672       -0.59608
O          0.60720       -0.83109       -1.70364
N          0.88227       -0.37621        0.49227
C          0.36119       -0.30127        1.83835
C          2.28424       -0.16842        0.33124
C          3.17073       -1.08132        0.88692
C          4.53444       -0.90262        0.75221
C          5.01507        0.19295        0.05569
C          4.13083        1.09865       -0.50070
C          2.75651        0.93945       -0.37434
C          1.81390        1.92270       -0.99338
C         -3.34371       -2.11929       -0.33833
C         -4.08868       -0.99662       -0.04563
C         -3.46851        0.24843        0.08250
O         -4.29260        1.29593        0.36129
C         -3.73691        2.58456        0.45477
C         -2.09087        0.34152       -0.06900
H         -0.55923       -0.87666        1.92189
H          1.09628       -0.70249        2.53597
H          0.15613        0.73647        2.12176
H          1.35255        1.47463       -1.87371
H          1.01883        2.19179       -0.29913
H          2.33998        2.82476       -1.29518
H          4.51055        1.95060       -1.04618
H          6.07892        0.33959       -0.05685
H          5.21761       -1.61965        1.18189
H         -1.38273       -2.89882       -0.74725
H         -3.83568       -3.07460       -0.44480
H         -5.15838       -1.04945        0.08077
H         -4.57344        3.25280        0.65400
H         -3.25201        2.88222       -0.48059
H         -3.01732        2.65534        1.27756
H         -1.58278        1.28975        0.01669
