28
aa286_plan_opt_C14_H25_TZ.log	Energy: -373454.3552855
C          2.06401        1.20112        0.16501
C          1.61627       -0.11473        0.06239
C          0.19542       -0.40466        0.19569
N         -0.69510        0.45143        0.48129
C         -1.97726       -0.21346        0.52308
C         -1.62825       -1.68500        0.16323
O         -0.21623       -1.68798        0.00873
C         -2.97937        0.44470       -0.43704
C         -4.34588       -0.22691       -0.33225
C         -3.09119        1.93387       -0.12259
C          3.41020        1.48225        0.03732
C          4.31729        0.45816       -0.19020
C          3.87548       -0.85117       -0.29031
C          2.52942       -1.14107       -0.16638
H         -1.89941       -2.39554        0.94782
H         -2.07891       -1.99952       -0.78350
H         -2.37118       -0.13151        1.54371
H         -2.59535        0.32877       -1.45731
H         -4.73994       -0.12244        0.67669
H         -5.04415        0.24076       -1.02255
H         -4.28923       -1.28692       -0.56905
H         -2.10819        2.39380       -0.15741
H         -3.50345        2.07791        0.87364
H         -3.74157        2.42527       -0.84238
H          4.58322       -1.64818       -0.46574
H          5.36961        0.68124       -0.28936
H          3.75765        2.50202        0.11464
H          1.33967        1.97958        0.34419
