39
aa284_opt_C13_H21_TZ.log	Energy: -589237.5170801
H         -2.14603       -0.65148        1.57645
H          3.83828       -1.68463       -2.44239
H          1.97851       -0.31426       -1.59244
H         -0.59070        2.68203       -1.37598
C          3.37986       -3.21114        0.53998
C          3.91945       -2.93648       -0.70733
C          3.41473       -1.89555       -1.47168
C          0.70261       -0.59717        0.80761
H         -1.57208       -1.21083       -2.08555
C          2.37043       -1.12524       -0.99596
C         -1.48910       -0.96563       -1.02239
H          2.41544        5.28249        0.21362
C         -4.27064       -0.43075        1.48656
C         -5.38909       -0.39046        0.67101
C         -5.24719       -0.53975       -0.69759
C         -3.99179       -0.72803       -1.24948
C          1.96145        4.30483        0.14486
H          1.90005       -2.63865        1.99031
H         -6.11621       -0.50777       -1.33895
H         -6.36873       -0.24010        1.10093
C          0.85580        4.10732       -0.66892
C         -2.86934       -0.77716       -0.43599
C         -3.01619       -0.62218        0.93687
C          2.48120        3.24763        0.87329
C          1.90156        1.99489        0.79222
H         -3.88486       -0.84137       -2.31886
O          0.23878       -0.79055        1.91226
H          0.44910        4.93223       -1.23523
C          0.78970        1.78916       -0.02349
H          3.77366       -4.02283        1.13345
C          0.15504        0.47025       -0.11646
H          4.73513       -3.53508       -1.08530
H         -0.97500       -1.78955       -0.50175
N         -0.79351        0.28655       -0.93558
C          1.82433       -1.39588        0.25826
C          2.33751       -2.44466        1.02180
C          0.27202        2.85956       -0.75374
H          3.34059        3.40004        1.50957
H          2.31313        1.17685        1.36648
