30
aa299_plan_opt_C4_H16_TZ.log	Energy: -374216.3056443
C         -1.35852       -0.65473       -1.20365
C         -1.37431        0.27693       -0.17419
C         -0.64459        1.57977       -0.32083
C         -2.07869       -1.83103       -1.08651
C         -2.82700       -2.07750        0.05188
C         -2.86160       -1.14145        1.07195
O         -1.14700        2.52355       -0.90280
C         -2.13924        0.03339        0.96056
N          0.58163        1.63784        0.25172
C          1.34858        2.85810        0.14895
C          1.23648        0.50353        0.86271
C          2.10126       -0.28256       -0.12828
C          2.75458       -1.49171        0.53459
C          3.63044       -2.26448       -0.44397
H         -0.78933       -0.45178       -2.09939
H         -3.38966       -2.99511        0.14119
H         -3.45464       -1.32538        1.95580
H         -2.16833        0.76886        1.75180
H          0.48133       -0.16323        1.28560
H          1.86141        0.87418        1.68134
H          0.72252        3.60489       -0.33609
H          1.63123        3.20900        1.14380
H          2.25121        2.70549       -0.44599
H          1.47344       -0.61768       -0.95573
H          2.87570        0.36942       -0.53682
H          1.97556       -2.15054        0.92468
H          3.36115       -1.15785        1.37955
H          3.04021       -2.61637       -1.28704
H          4.42825       -1.63093       -0.82531
H          4.08024       -3.12585        0.04360
