30
aa301_plan_opt_C1_H17_TZ.log	Energy: -374225.3982145
C          3.58395        0.61157       -0.78206
C          4.09160       -0.67390       -0.82805
C          3.36036       -1.72506       -0.30087
C          2.11887       -1.47946        0.25390
C          1.59175       -0.19244        0.27247
C          2.33403        0.87606       -0.23388
C          1.83723        2.29170       -0.17763
C          0.23338       -0.01931        0.88038
N         -0.66393        0.57027        0.05259
C         -2.05396        0.74812        0.40155
C         -2.97372       -0.14036       -0.43639
C         -4.43915        0.05193       -0.05555
C         -5.36188       -0.81062       -0.90791
O         -0.04336       -0.39105        2.00244
H         -5.11494       -1.86356       -0.79209
H          1.13180        2.42893        0.63770
H          2.67265        2.97452       -0.03598
H         -6.39860       -0.66686       -0.61355
H         -5.26507       -0.55035       -1.96002
H          3.75853       -2.72844       -0.31645
H         -0.39140        0.77982       -0.89430
H          1.34386        2.56552       -1.11165
H         -2.14098        0.49150        1.45991
H         -2.32888        1.80086        0.26744
H         -2.83903        0.09578       -1.49594
H         -2.69077       -1.18446       -0.28720
H         -4.57165       -0.20336        0.99759
H         -4.70878        1.10372       -0.17836
H          1.53876       -2.28335        0.68217
H          5.06411       -0.85307       -1.26262
