29
aa329_plan_opt_C9_H14_TZ.log	Energy: -467668.8243286
N         -1.12988       -0.10147       -0.00016
C         -0.37340        1.03276       -0.00005
H         -0.63654       -0.98210       -0.00027
C         -2.52038       -0.23400       -0.00008
C         -3.04265       -1.52742       -0.00012
C         -4.40857       -1.73071       -0.00003
C         -5.27316       -0.64849        0.00011
C         -4.75723        0.63623        0.00015
C         -3.39112        0.85202        0.00006
H         -2.37051       -2.37546       -0.00023
H         -4.79879       -2.73795       -0.00006
H         -6.34099       -0.80763        0.00020
H         -5.42475        1.48509        0.00026
O         -0.83871        2.15561        0.00005
C          1.10833        0.81279       -0.00006
C          1.73357       -0.42590       -0.00005
C          3.12527       -0.52214       -0.00001
C          3.89746        0.63385        0.00000
C          3.27196        1.87073       -0.00002
C          1.89675        1.96491       -0.00004
H          1.19944       -1.36459       -0.00005
O          3.61770       -1.79238        0.00001
H          4.97475        0.58423        0.00002
H          3.87429        2.76677        0.00000
H          1.40021        2.92252       -0.00004
C          5.01334       -1.97338        0.00015
H          5.16990       -3.05089        0.00026
H          5.47471       -1.54154       -0.89368
H          5.47455       -1.54139        0.89398
