30
aa320_opt_C8_H24_TZ.log	Energy: -374229.8489841
C          1.25242       -0.60355        0.00001
C          2.62488        0.09796       -0.00001
C          3.36006       -0.39343        1.25307
C          3.36010       -0.39358       -1.25299
C          2.58664        1.62647       -0.00009
N          0.17201        0.21979       -0.00005
C         -1.19172       -0.10254       -0.00003
C         -1.64131       -1.41870       -0.00004
C         -2.99616       -1.69352       -0.00002
C         -3.91630       -0.66150        0.00001
C         -3.46994        0.64863        0.00002
C         -2.11766        0.95232        0.00001
C         -1.67326        2.38883        0.00002
H          4.38928       -0.04158        1.25226
H          2.86790       -0.02954        2.15334
H          3.35943       -1.47991        1.27662
H          4.38933       -0.04173       -1.25217
H          2.86800       -0.02977       -2.15332
H          3.35946       -1.48006       -1.27643
H          2.09813        2.01856        0.89127
H          3.60882        2.00144       -0.00011
H          2.09813        2.01846       -0.89150
H          0.35690        1.20979       -0.00006
H         -3.32955       -2.72032       -0.00004
H         -4.97541       -0.87088        0.00003
H         -4.18805        1.45657        0.00005
H         -2.53977        3.04514        0.00007
H         -1.08066        2.61987        0.88669
H         -1.08074        2.61991       -0.88670
O          1.19102       -1.81486        0.00007
