28
aa326_plan2_opt_C7_H12_TZ.log	Energy: -420504.1835575
N          0.38298        0.07126        0.02044
C         -0.59539       -0.86789       -0.12504
H          0.06984        1.01663        0.18157
C          1.77379       -0.08236        0.01079
C          2.56962        1.06513        0.15084
C          3.94803        0.92038        0.14542
C          4.54392       -0.32106        0.00452
C          3.75091       -1.44522       -0.13706
C          2.37351       -1.32947       -0.13422
C          1.95890        2.43124        0.29926
H          4.56727        1.79977        0.25325
H          4.20191       -2.41950       -0.24970
H          1.75152       -2.20148       -0.24416
H          2.74187        3.18063        0.38296
H          1.34622        2.68523       -0.56728
H          1.33962        2.49417        1.19573
O         -0.40501       -2.05860       -0.26784
C         -1.97798       -0.29942       -0.06711
C         -2.30283        0.97278       -0.52967
C         -3.60937        1.42324       -0.46204
C         -4.60114        0.61361        0.06663
C         -4.28810       -0.66000        0.51300
C         -2.98557       -1.11573        0.43949
H         -1.55171        1.60839       -0.97893
H         -3.85519        2.40966       -0.82763
H         -5.61819        0.97281        0.12027
H         -5.06109       -1.29863        0.91380
H         -2.72265       -2.10906        0.77090
