32
aa338_opt_C24_H29_TZ.log	Energy: -469046.8133812
C         -1.00526        0.75653       -0.11915
C         -2.13237        1.56998       -0.11610
C         -2.00426        2.94511       -0.06642
C         -0.74494        3.52063       -0.04290
C          0.37828        2.71551       -0.03544
C          0.26999        1.32812       -0.05256
H         -3.10789        1.11038       -0.14603
H         -2.88683        3.56663       -0.05822
H         -0.63793        4.59477       -0.01813
H          1.36245        3.15861        0.01641
C          1.49194        0.51195        0.05851
N         -1.17668       -0.63983       -0.22322
C         -0.53397       -1.42835       -1.25743
C         -1.40527       -2.68506       -1.33518
C         -1.95920       -2.80446        0.08081
C         -2.00508       -1.36401        0.57309
O         -2.63277       -0.94195        1.51538
H         -2.94413       -3.26351        0.13479
H         -0.83548       -3.55829       -1.64602
H          0.49452       -1.68118       -0.97377
H         -1.28457       -3.36368        0.73251
H         -2.22099       -2.53245       -2.04329
H         -0.50577       -0.86775       -2.19490
C          2.57294        0.73026       -0.78997
C          3.72961       -0.01658       -0.65763
C          3.82440       -0.98278        0.32983
C          2.75652       -1.19997        1.18534
C          1.59631       -0.45968        1.05154
H          4.56091        0.15725       -1.32534
H          4.72953       -1.56250        0.43526
H          2.82991       -1.94709        1.96222
H          0.76735       -0.61999        1.72582
