36
aa337_opt_C21_H26_TZ.log	Energy: -564121.7846474
N         -0.42519       -0.05754       -0.13275
C          0.47290        0.43168        0.77174
C         -0.05037       -1.09116       -1.07615
C         -1.78706        0.31688       -0.07751
C         -2.77423       -0.63963       -0.26170
C         -4.12170       -0.28614       -0.22996
C         -4.47914        1.03763       -0.00678
C         -3.48549        1.98524        0.17916
C         -2.14905        1.64416        0.14030
H         -2.53350       -1.67849       -0.41850
O         -4.99808       -1.31290       -0.42740
H         -5.51321        1.34084        0.02602
H         -3.76617        3.01366        0.35014
H         -1.39007        2.39313        0.28635
O          0.19014        1.22369        1.64603
C          1.87179       -0.09633        0.62891
C          2.78148        0.56794       -0.17413
C          4.10232        0.12606       -0.26273
C          4.49901       -0.98574        0.47252
C          3.58294       -1.63700        1.28272
C          2.27399       -1.20408        1.36751
H          2.49000        1.43826       -0.74167
O          4.90783        0.84240       -1.09346
H          5.51361       -1.34879        0.42874
H          3.90350       -2.49487        1.85521
C         -6.37590       -1.03624       -0.37290
H         -6.87490       -1.99060       -0.53451
H         -6.66765       -0.63698        0.60374
H         -6.67733       -0.33426       -1.15733
H         -0.74391       -1.06992       -1.91487
H          0.95615       -0.90627       -1.44734
H         -0.07187       -2.08484       -0.62019
C          6.25764        0.46419       -1.21468
H          6.69998        1.17294       -1.91294
H          6.78089        0.52779       -0.25533
H          6.35702       -0.54915       -1.61759
