32
aa338_plan_opt_C3_H8_TZ.log	Energy: -469046.7651803
C         -0.95511        0.86687       -0.08835
C         -1.99059        1.79586       -0.09271
C         -1.71920        3.15023       -0.06271
C         -0.40709        3.59307       -0.05496
C          0.62525        2.67462       -0.04061
C          0.37261        1.30619       -0.03445
H         -3.00950        1.44324       -0.11347
H         -0.18857        4.65036       -0.04883
H          1.65122        3.01181       -0.00296
C          1.50859        0.37474        0.08880
N         -1.26926       -0.50294       -0.18513
C         -0.62593       -1.38542       -1.14229
C         -1.65237       -2.50399       -1.33472
C         -2.35275       -2.54918        0.01891
C         -2.26109       -1.11302        0.51802
O         -2.92445       -0.61268        1.39555
H         -3.38951       -2.87583       -0.02739
H         -1.18261       -3.44714       -1.60629
H          0.30994       -1.78641       -0.73582
H         -1.82266       -3.19055        0.72620
H         -2.36411       -2.23194       -2.11554
H         -0.39960       -0.84290       -2.06281
C          2.57899        0.43520       -0.79748
C          3.65505       -0.42233       -0.65543
C          3.68091       -1.33990        0.38134
C          2.62487       -1.39804        1.27631
C          1.54318       -0.54898        1.13098
H          2.55637        1.14932       -1.60832
H          4.47711       -0.37344       -1.35461
H          4.52343       -2.00607        0.49412
H          2.64586       -2.10645        2.09170
H          0.72131       -0.58749        1.83164
