31
aa334_plan2_opt_C6_H11_TZ.log	Energy: -445141.5249422
N         -0.62174       -0.01478        0.46874
C          0.23984       -0.25979       -0.56288
C         -0.14632        0.38623        1.77660
C         -2.02039       -0.00807        0.25705
C         -2.81462        0.97116        0.84645
C         -4.18547        0.95743        0.66420
C         -4.77893       -0.02528       -0.10832
C         -3.99020       -0.99781       -0.69901
C         -2.61995       -0.99697       -0.51628
H         -2.36571        1.75283        1.44005
H         -5.84933       -0.03239       -0.24904
H         -4.44486       -1.77026       -1.30104
H         -2.01163       -1.75789       -0.97642
O         -0.12247       -0.46448       -1.70359
C          1.69491       -0.27471       -0.19537
C          2.49770        0.83902       -0.44360
C          3.85122        0.75935       -0.14508
C          4.40090       -0.39916        0.37566
C          3.60119       -1.50627        0.59975
C          2.24952       -1.44322        0.31137
C          1.89941        2.08472       -1.02148
H          4.48361        1.61622       -0.32857
H          5.45655       -0.44020        0.60004
H          4.02694       -2.41624        0.99530
H          1.61620       -2.30357        0.47639
H          2.67326        2.80510       -1.27423
H          1.33257        1.84387       -1.91919
H          1.21344        2.54874       -0.31235
H          0.01848        1.46662        1.83604
H         -0.88459        0.10067        2.52536
H          0.79401       -0.11397        2.00089
