22
aa51_opt_C3_H8_TZ.log	Energy: -347446.9244759
C          0.35997        0.15542       -0.00192
C          0.38471        1.54337       -0.00010
C         -0.81290        2.23974        0.00302
C         -2.02277        1.57902        0.00386
C         -2.05307        0.18343        0.00113
C         -0.85998       -0.52331       -0.00161
H          1.32651        2.06342       -0.00103
N          1.52036       -0.62860       -0.00462
C          2.82674       -0.23336       -0.00481
O          3.19531        0.91847       -0.00589
C          3.80648       -1.39174        0.00728
H          4.53067       -1.24337       -0.79034
H          4.35012       -1.37460        0.94999
H          3.32554       -2.35807       -0.11351
H         -2.95918        2.11301        0.00651
O         -3.29221       -0.38396        0.00160
H         -0.85459       -1.60394       -0.00368
C         -3.39453       -1.78555       -0.00208
H         -4.46141       -2.00357       -0.00099
H         -2.93963       -2.22124       -0.89817
H         -2.93680       -2.22622        0.89012
H          1.34354       -1.62346       -0.00087
