20
aa62_plan_opt_C6_H11_TZ.log	Energy: -310345.6370213
C          0.78311       -0.34556       -0.00508
C          1.20341        0.98090        0.00903
C          2.55511        1.27234        0.01756
C          3.50068        0.26114        0.01169
C          3.08426       -1.05936       -0.00398
C          1.73687       -1.36268       -0.01218
H          0.46988        1.76892        0.01271
H          2.87083        2.30506        0.02963
H          4.55392        0.49800        0.01946
H          3.81081       -1.85886       -0.00925
N         -0.56238       -0.71879       -0.00714
C         -1.67976        0.08878       -0.01424
O         -1.66356        1.29922       -0.03948
N         -2.84181       -0.63057       -0.00164
H         -0.71450       -1.71740       -0.01053
C         -4.12976        0.01603        0.02589
H         -2.82425       -1.63449        0.06994
H         -4.73880       -0.29988       -0.82368
H         -4.66274       -0.20729        0.95321
H         -3.95097        1.08816       -0.03629
