18
aa70_opt_C10_H15_TZ.log	Energy: -286283.0624691
C         -0.96102        0.05184       -0.00520
N         -1.64312       -1.08594       -0.08414
N         -2.92584       -0.75205       -0.04869
C         -3.10757        0.58167        0.05448
C         -1.85772        1.14358        0.08444
H         -1.62152        2.18373        0.16784
H         -4.08387        1.02073        0.09836
C          0.49362        0.06951       -0.00826
C          1.20542        1.26626       -0.06394
C          2.58775        1.25870       -0.05717
C          3.27980        0.06082        0.00475
C          2.58040       -1.13463        0.05542
C          1.19964       -1.13231        0.04851
H          0.67784        2.20661       -0.11770
H          4.36009        0.05920        0.01264
H          3.11706       -2.07137        0.10217
H          0.64113       -2.05438        0.08755
H         -3.62992       -1.47114       -0.09917
