19
aa79_opt_C4_H9_TZ.log	Energy: -310183.6809124
C         -0.75306       -0.00001       -0.00019
C         -1.45508        1.20463       -0.00018
C         -2.83640        1.20070       -0.00008
C         -3.52937        0.00001        0.00025
C         -2.83641       -1.20069        0.00037
C         -1.45509       -1.20463        0.00023
H         -0.89983        2.12936       -0.00023
H         -3.37778        2.13552       -0.00008
H         -3.37780       -2.13551        0.00072
H         -0.89984       -2.12938        0.00052
C          0.71027       -0.00002       -0.00042
N          1.33138        1.18023       -0.00038
C          2.64978        1.17511        0.00054
C          3.38876        0.00002        0.00077
C          2.64981       -1.17509       -0.00022
N          1.33139       -1.18025       -0.00073
H          3.12529        2.14878       -0.00029
H          4.46596        0.00003        0.00165
H          3.12534       -2.14875       -0.00085
