31
aa98_opt_C6_H11_TZ.log	Energy: -764639.0909338
C          2.63437       -0.35793        0.11030
C          2.96331       -1.69765        0.29947
C          4.25054       -2.14032        0.05934
C          5.22369       -1.24580       -0.35628
C          4.90799        0.09283       -0.52462
C          3.61846        0.53885       -0.29640
H          2.19266       -2.37503        0.63495
H          4.49800       -3.18166        0.20091
H          6.23088       -1.58881       -0.54064
H          5.67048        0.79273       -0.83264
C          1.23522        0.06335        0.39737
O          0.52384       -0.50980        1.19345
N          0.77016        1.12438       -0.31965
H          1.33000        1.56417       -1.03091
S         -0.71748        1.89340        0.05449
O         -0.88771        2.79575       -1.04586
O         -0.63194        2.43391        1.37209
C         -1.89729        0.57171       -0.03423
C         -2.38187        0.00777        1.12817
C         -3.28815       -1.03195        1.03672
C         -3.70724       -1.50488       -0.20487
C         -3.20369       -0.91370       -1.35910
C         -2.29514        0.12756       -1.27803
H         -2.03177        0.38457        2.07469
H         -3.67486       -1.48769        1.93607
C         -4.70187       -2.62097       -0.28584
H         -3.52346       -1.27188       -2.32674
H         -1.90010        0.60722       -2.15959
H         -4.73278       -3.04720       -1.28493
H         -4.45731       -3.40523        0.42707
H         -5.69669       -2.24845       -0.04182
