19
aa99_plan_opt_C2_H7_TZ.log	Energy: -548688.7646497
C          0.79749       -0.41866       -0.23023
C          1.09277        0.93995       -0.30221
C          2.39606        1.37024       -0.13046
C          3.41393        0.46256        0.11219
C          3.12154       -0.88928        0.17630
C          1.82201       -1.33130        0.01072
H          2.61747        2.42524       -0.19197
H          4.42883        0.80513        0.24352
H          3.90803       -1.60652        0.35831
H          1.59404       -2.38655        0.05906
N         -0.50849       -0.86247       -0.40746
S         -1.88034        0.03296       -0.10506
H         -0.66623       -1.85399       -0.33590
C         -1.71590        0.49439        1.63792
H         -2.51703        1.18480        1.86672
H         -1.80629       -0.40556        2.23111
H         -0.75286        0.96820        1.77667
O         -1.88213        1.22213       -0.89607
O         -2.95892       -0.89565       -0.24390
