17

C  -1.502820 1.268880 -0.000830
C  -2.079530 0.000030 0.000030
C  -0.147900 1.588670 -0.000430
C  -1.502940 -1.269020 0.000050
F  -3.415220 0.000130 0.000710
C  0.958370 0.744500 0.000150
C  2.303510 -1.147730 -0.000230
C  -0.148240 -1.588650 -0.000360
H  -2.222650 -2.090890 0.000420
C  0.958040 -0.743960 -0.000280
C  2.304320 1.147430 0.000530
C  3.110810 -0.000270 0.000370
H  0.081090 -2.659440 -0.000620
H  2.649280 2.181270 0.000910
H  4.201900 -0.000460 0.000580
H  0.080380 2.659750 -0.000840
H  -2.222520 2.091050 -0.000480
