20

O  -2.067480 -0.874880 0.000020
C  -1.290120 0.219050 -0.000000
C  -3.461200 -0.636700 0.000010
O  -1.756080 1.333000 -0.000040
C  0.158710 -0.117330 0.000010
C  0.546930 -1.465180 -0.000000
C  1.137600 0.903280 0.000020
C  1.887750 -1.826240 -0.000010
C  2.481700 0.510390 0.000010
C  0.811170 2.366920 0.000010
C  2.860140 -0.828590 -0.000010
H  2.172590 -2.880580 -0.000020
H  3.251270 1.286670 0.000010
H  3.920660 -1.092480 -0.000020
H  0.205400 2.644480 0.874230
H  0.205490 2.644480 -0.874270
H  1.735280 2.961460 0.000040
H  -3.762940 -0.065690 0.890730
H  -3.942160 -1.621870 -0.000050
H  -3.762910 -0.065620 -0.890680
