22

N  -3.119200 -1.182830 0.215630
H  -3.666880 -1.287220 -0.636860
H  -3.642330 -1.643170 0.956250
C  -2.918320 0.221600 0.516150
H  -3.857290 0.815670 0.520160
H  -2.499620 0.302290 1.533120
C  -1.946020 0.878530 -0.465050
H  -2.038760 1.971730 -0.367960
H  -2.276400 0.639040 -1.492790
C  -0.499230 0.497710 -0.289120
C  -0.066620 -0.832450 -0.396760
C  0.460560 1.471890 -0.001900
C  1.272950 -1.162050 -0.223670
C  1.804010 1.138330 0.167730
C  2.237060 -0.184910 0.058770
H  1.581440 -2.208470 -0.309980
H  2.530370 1.925260 0.390600
C  3.681930 -0.555920 0.230130
H  -0.808070 -1.609750 -0.590180
H  4.104120 -0.960110 -0.704360
H  3.808090 -1.331940 1.001710
H  4.289300 0.312320 0.522660
