28

N  -1.198580 1.772200 -0.098640
H  -1.608960 2.173570 0.744060
H  -1.686680 2.178320 -0.891630
C  -1.315460 0.325140 -0.078870
C  -2.740150 -0.213740 0.196920
H  -1.021250 -0.032220 -1.083690
C  -0.291970 -0.222840 0.929370
H  -0.526100 -1.269130 1.169260
H  -0.412300 0.343880 1.869760
C  1.133910 -0.147570 0.455610
C  1.814630 1.074090 0.370060
C  1.805200 -1.309570 0.057790
C  3.125880 1.126920 -0.096630
C  3.117670 -1.260300 -0.409860
H  1.289100 -2.272500 0.118920
C  3.783650 -0.039140 -0.488090
H  3.622320 -2.181560 -0.711800
H  4.813370 0.004440 -0.851350
H  1.291230 1.988450 0.653190
H  -2.956920 -0.021570 1.266660
C  -3.789570 0.518100 -0.633350
H  -4.796630 0.122150 -0.432390
H  -3.811270 1.596520 -0.420240
H  -3.594880 0.390640 -1.712230
C  -2.845620 -1.715400 -0.052120
H  -2.157030 -2.301680 0.572830
H  -3.863730 -2.078810 0.155380
H  -2.619740 -1.949540 -1.106050
