28

N  2.312880 -2.125450 -0.241130
H  2.577620 -2.611810 0.613750
H  2.541190 -2.747100 -1.012690
C  3.033740 -0.871970 -0.352480
H  4.130710 -0.974130 -0.209490
H  2.892080 -0.480800 -1.373620
C  2.520350 0.171550 0.642480
H  3.251550 0.993550 0.692980
H  2.505760 -0.284190 1.649310
C  1.164870 0.740110 0.314390
C  0.025660 -0.071620 0.300000
C  1.021840 2.094960 -0.007940
C  -1.234940 0.433250 -0.034210
C  -0.227410 2.617210 -0.333390
H  1.900360 2.746740 -0.001500
C  -1.349150 1.790930 -0.348050
C  -2.442860 -0.480060 -0.067640
H  -0.327560 3.677430 -0.579540
H  0.149970 -1.132580 0.525680
H  -3.311350 0.145580 -0.337450
C  -2.292470 -1.555720 -1.143610
H  -3.189030 -2.194170 -1.191110
H  -2.138560 -1.105280 -2.135700
H  -1.426040 -2.204100 -0.936420
C  -2.724640 -1.097480 1.301360
H  -2.854300 -0.320950 2.070090
H  -3.638660 -1.711700 1.275040
H  -1.895090 -1.748240 1.620510
