17

C  0.000060 -0.714950 0.000060
C  0.000000 0.715000 -0.000080
C  -1.242340 -1.400460 -0.000100
C  -2.429900 -0.707230 -0.000110
C  -1.242410 1.400470 -0.000100
C  -2.429940 0.707190 0.000060
H  -1.239160 2.493720 -0.000040
H  -3.379450 1.247710 0.000200
H  -1.239060 -2.493710 -0.000030
C  1.242370 -1.400580 0.000070
H  1.239160 -2.493980 0.000070
C  2.429890 -0.707140 0.000040
H  3.379380 -1.247690 0.000070
C  2.429920 0.707230 0.000070
H  3.379390 1.247820 0.000100
C  1.242350 1.400500 0.000050
H  1.239130 2.493740 0.000010
