18

S  -2.449900 -1.152290 -0.460630
C  -1.329950 -0.042940 0.410610
H  -3.537980 -0.681020 0.185210
O  -1.738300 0.809050 1.155980
C  0.104490 -0.297070 0.119480
C  0.550360 -1.631030 0.066150
C  1.061890 0.742170 0.049510
C  1.897050 -1.949260 -0.001270
C  2.423770 0.406010 -0.002360
O  0.805360 2.056110 0.002440
C  2.837800 -0.915930 -0.019590
H  2.214230 -2.993330 -0.022150
H  3.138240 1.229540 -0.052580
H  3.905310 -1.144680 -0.064850
C  -0.360590 2.579350 -0.589740
H  -0.743400 1.908970 -1.377830
H  -1.152360 2.737760 0.155330
H  -0.076840 3.538690 -1.044210
