17

S  2.998220 -0.382530 -0.528590
C  1.454090 -0.610240 0.358510
H  3.531160 -1.522390 -0.038770
O  1.222980 -1.581680 1.020640
C  0.505870 0.537320 0.180400
C  1.006960 1.841130 0.242640
C  -0.877700 0.342160 0.004140
C  0.158050 2.940940 0.151660
C  -1.716880 1.449430 -0.101460
C  -1.497950 -1.035890 -0.107430
C  -1.207310 2.743940 -0.020320
H  0.568510 3.950840 0.216090
H  -1.883520 3.597800 -0.099610
H  2.079680 1.989570 0.385120
F  -2.733870 -0.956850 -0.619250
F  -1.607490 -1.635650 1.073630
F  -0.793950 -1.828210 -0.916580
