16

S  2.839890 -0.936230 0.001360
C  1.778480 0.525830 0.001740
H  3.962900 -0.189760 0.005100
O  2.250020 1.635160 0.004700
C  0.329700 0.244200 -0.001790
C  -0.216190 -1.046740 -0.002490
C  -0.548300 1.338890 -0.002630
C  -1.586450 -1.241990 -0.003730
C  -1.918300 1.156140 -0.004030
C  -2.469050 -0.142540 -0.004910
H  -1.992250 -2.256790 -0.006110
H  -2.585910 2.021850 -0.006540
H  -4.427330 0.450950 0.164600
H  0.440650 -1.920610 -0.000500
H  -4.193700 -1.245000 0.165360
N  -3.820580 -0.329650 -0.039070
