15
Properties=species:S:1:pos:R:3 RH_Sub23.log=T Energy:=T -320033.2341888=T pbc="F F F"
N        0.78314000       1.62864000      -0.08452000
H        0.83774000       1.64304000       0.93279000
H        0.08605000       2.31265000      -0.36643000
C        0.42494000       0.31235000      -0.53942000
C       -0.92196000      -0.14736000       0.01384000
H        0.27557000       0.34294000      -1.63540000
C        1.48653000      -0.71191000      -0.24136000
H        1.19040000      -1.75585000      -0.38538000
C        2.72164000      -0.40786000       0.15097000
H        3.46033000      -1.18984000       0.34179000
H        3.02807000       0.63403000       0.27556000
F       -1.28060000      -1.34263000      -0.46301000
F       -1.88668000       0.72172000      -0.31531000
F       -0.90238000      -0.23006000       1.34772000
Xe       3.76712815      -1.51461767       0.42104276
