23
Properties=species:S:1:pos:R:3 RH_Sub23_O.log=T Energy:=T -406442.1992408=T pbc="F F F"
O       -0.06175000       1.63684000      -0.09514000
H        0.26943000       1.32375000       0.75363000
C       -0.65417000       0.55626000      -0.75645000
C       -1.81639000       0.03731000       0.08400000
H       -1.12065000       0.97748000      -1.66158000
C        3.12369000      -0.18795000       0.12548000
H        3.82529000      -0.91987000      -0.29662000
C        3.37442000       1.11097000      -0.04201000
H        4.26479000       1.45608000      -0.57412000
C        0.31046000      -0.54328000      -1.20291000
H        1.10283000      -0.03474000      -1.77530000
H       -0.23157000      -1.18215000      -1.91778000
C        1.92990000      -0.76693000       0.81912000
H        1.42911000       0.00487000       1.42691000
H        2.26873000      -1.52624000       1.54460000
C        0.94047000      -1.44174000      -0.13936000
H        0.15705000      -1.94539000       0.44814000
H        1.47644000      -2.24775000      -0.66913000
H        2.69135000       1.87971000       0.33203000
F       -2.33935000      -1.08062000      -0.42610000
F       -2.79259000       0.93563000       0.18043000
F       -1.41129000      -0.24036000       1.33713000
Xe       4.11333383      -1.22036179      -0.46991433
