29
Properties=species:S:1:pos:R:3 aa306_plan_opt_TZ.log=T Energy:=T -350010.0845105=T pbc="F F F"
C       -1.79100000      -1.43273000       0.04016000
C       -0.97418000      -0.32254000       0.22261000
C        0.44543000      -0.57059000       0.63502000
C       -3.10899000      -1.28169000      -0.34685000
C       -3.62210000      -0.01017000      -0.53919000
C       -2.82037000       1.09665000      -0.32948000
O        0.74649000      -1.20194000       1.62740000
C       -1.49105000       0.96304000       0.05436000
C       -0.66466000       2.19197000       0.30145000
N        1.35738000      -0.05525000      -0.22226000
C        2.78896000      -0.18861000      -0.04365000
H        3.25402000      -0.42168000      -2.14278000
C        3.39640000      -0.96461000      -1.20992000
H        4.46179000      -1.10667000      -1.05148000
H        2.92549000      -1.94024000      -1.29910000
H        2.91728000      -0.75440000       0.88487000
C        3.42993000       1.19060000       0.09821000
H        4.49753000       1.09137000       0.27272000
H        3.28000000       1.77437000      -0.80828000
H        2.99145000       1.72782000       0.93535000
H        0.13771000       1.98974000       1.00600000
H       -0.22502000       2.55593000      -0.62849000
H       -1.28932000       2.98747000       0.70251000
H        1.03825000       0.42757000      -1.04711000
H       -1.37545000      -2.41542000       0.20663000
H       -3.73410000      -2.14972000      -0.49267000
H       -4.65143000       0.12035000      -0.83944000
H       -3.23206000       2.08785000      -0.45842000
Xe      -1.19840265      -2.83410045       0.27755545
