32
Properties=species:S:1:pos:R:3 aa57_plan_opt_TZ.log=T Energy:=T -374655.6569073=T pbc="F F F"
C        0.32651000       0.60820000      -0.00001000
C        0.72008000       1.94469000      -0.00003000
C       -0.20754000       2.96560000      -0.00009000
C       -1.55215000       2.65331000      -0.00018000
C       -1.94653000       1.32726000      -0.00014000
C       -1.04216000       0.26965000      -0.00004000
H        1.77191000       2.17312000       0.00003000
H        0.12311000       3.99291000      -0.00011000
H       -2.29984000       3.43250000      -0.00026000
H       -3.00461000       1.13102000      -0.00020000
C       -1.55855000      -1.17280000       0.00007000
N        1.31381000      -0.39024000       0.00001000
C        2.67206000      -0.28795000       0.00015000
O        3.30473000       0.74450000       0.00048000
C        3.36856000      -1.63897000      -0.00041000
H        4.00792000      -1.69740000      -0.87876000
H        4.01184000      -1.69617000       0.87512000
H        2.68101000      -2.48030000       0.00168000
C       -3.09489000      -1.24379000       0.00009000
C       -1.11719000      -1.90806000      -1.27932000
C       -1.11712000      -1.90782000       1.27956000
H       -1.50716000      -2.92465000      -1.27217000
H       -1.52716000      -1.39286000      -2.14595000
H       -0.04207000      -1.96577000      -1.42013000
H       -1.50615000      -2.92476000       1.27213000
H       -0.04200000      -1.96447000       1.42083000
H       -1.52794000      -1.39308000       2.14606000
H       -3.40046000      -2.28857000       0.00031000
H       -3.51494000      -0.77631000       0.88703000
H       -3.51492000      -0.77668000      -0.88706000
H        0.95049000      -1.32871000      -0.00028000
Xe      -3.45880218       1.04678188      -0.00022576
