25
Properties=species:S:1:pos:R:3 RH_Sub29_O.log=T Energy:=T -337841.5979927=T pbc="F F F"
O        3.63234000       0.95918000      -0.00039000
C        2.95479000      -0.19915000       0.00019000
H        4.57099000       0.71958000      -0.00015000
O        3.51172000      -1.26902000       0.00088000
C        1.48365000      -0.01358000      -0.00011000
C        0.88889000       1.25118000      -0.00075000
C        0.67369000      -1.15470000       0.00032000
C       -0.49788000       1.36535000      -0.00092000
C       -0.70845000      -1.03014000       0.00009000
H        1.15664000      -2.13407000       0.00082000
C       -1.31935000       0.23267000      -0.00051000
H       -0.95784000       2.35740000      -0.00146000
H       -1.32565000      -1.93228000       0.00040000
C       -2.82622000       0.37025000      -0.00043000
H        1.51925000       2.14169000      -0.00116000
H       -3.04699000       1.45131000      -0.00185000
C       -3.44428000      -0.23024000      -1.26293000
H       -4.53301000      -0.06631000      -1.27902000
H       -3.01605000       0.21973000      -2.17093000
H       -3.27113000      -1.31690000      -1.31455000
C       -3.44348000      -0.22680000       1.26411000
H       -3.01485000       0.22584000       2.17060000
H       -4.53225000      -0.06310000       1.28035000
H       -3.26994000      -1.31326000       1.31868000
Xe      -1.58170044      -2.30654012       0.00052861
